832
snapshot_id=pure_thf_r1_t14600ps source_time_ps=14600.000000
C   13.0800008774  13.1200008392  5.1300001144
C   13.7400007248  11.9100008011  4.4200000763
C   15.1300010681  12.4499998093  3.9700002670
O   15.2600002289  13.7600002289  4.5300002098
C   14.4200000763  13.8000011444  5.6700000763
H   12.4900007248  12.6700010300  5.9400005341
H   12.5300006866  13.6700010300  4.3699998856
H   13.1700000763  11.3900003433  3.6500000954
H   13.9900007248  11.1100006104  5.1399998665
H   15.2100000381  12.4800004959  2.8699998856
H   16.0300006866  11.9800004959  4.3699998856
H   14.0900001526  14.8400011063  5.7900004387
H   14.8700008392  13.2100009918  6.4800000191
C   3.1300001144  7.1100001335  13.4300003052
C   3.0400002003  6.6599998474  12.0300006866
C   4.1599998474  7.5300002098  11.4200010300
O   5.2000002861  7.4200005531  12.3800001144
C   4.6100001335  7.0900006294  13.7100009918
H   2.6100001335  6.4900007248  14.1700000763
H   2.7699999809  8.1300001144  13.6000003815
H   2.0799999237  6.8800001144  11.5600004196
H   3.2599999905  5.5999999046  11.8800010681
H   3.8200001717  8.5799999237  11.4700012207
H   4.4900002480  7.2100000381  10.4300012589
H   5.0200004578  7.8600001335  14.3700008392
H   4.9800004959  6.0800004005  13.9300003052
C   8.6500005722  10.7899999619  8.3600006104
C   7.1700000763  11.2600002289  8.2400007248
C   6.8300004005  11.0200004578  6.8300004005
O   8.0399999619  11.2200012207  6.1000003815
C   9.1600008011  10.9000005722  6.8100004196
H   8.7399997711  9.7200002670  8.6000003815
H   9.2899999619  11.3000001907  9.0900001526
H   7.0600004196  12.3400011063  8.3800010681
H   6.4900007248  10.7899999619  8.9600000381
H   5.9700002670  11.5700006485  6.4300003052
H   6.5700001717  9.9700002670  6.6800003052
H   9.8700008392  11.7300014496  6.7700004578
H   9.6700010300  10.0100002289  6.4200000763
C   14.8500003815  14.9400005341  8.9500007629
C   16.1700019836  14.2000007629  9.3299999237
C   15.7700004578  13.6700010300  10.7100009918
O   14.4400014877  13.2000007629  10.4300012589
C   13.8900003433  13.8299999237  9.2500009537
H   14.9800004959  15.2800006866  7.9200005531
H   14.7200012207  15.6900014877  9.7400007248
H   17.0100002289  14.8900012970  9.4600000381
H   16.3900012970  13.4300003052  8.5900001526
H   15.7000007629  14.5900011063  11.3100004196
H   16.3000011444  12.8000011444  11.1200008392
H   12.8800010681  14.2200002670  9.4000005722
H   13.8400001526  13.1000003815  8.4300003052
C   9.6500005722  4.0199999809  0.6900000572
C   10.6800003052  3.2500002384  20.3400020599
C   11.6000003815  2.5500001907  0.7100000381
O   11.6599998474  3.4700000286  1.8200001717
C   10.3900003433  3.9900002480  2.0900001526
H   8.7000007629  3.4900000095  0.5700000525
H   9.4500007629  5.0399999619  0.3499999940
H   11.2700004578  3.8700003624  19.6500015259
H   10.1400003433  2.5100002289  19.7400016785
H   12.6000013351  2.3700001240  0.3100000024
H   11.1900005341  1.6000001431  1.0800000429
H   10.4000005722  4.9600000381  2.6000001431
H   9.8600006104  3.2800002098  2.7500000000
C   16.6600017548  8.1800003052  8.0000000000
C   17.0200004578  9.7300004959  7.8800005913
C   18.2900009155  9.8700008392  8.7900009155
O   18.2600002289  8.7200002670  9.5900001526
C   17.7700004578  7.5700001717  8.8299999237
H   16.6000003815  7.5799999237  7.0799999237
H   15.7300004959  8.0200004578  8.5500001907
H   16.3200016022  10.4500007629  8.3199996948
H   17.2400016785  10.1400003433  6.8900003433
H   18.3600006104  10.7000007629  9.5100002289
H   19.1300010681  9.8500003815  8.0799999237
H   17.3600006104  6.8300004005  9.5300006866
H   18.5799999237  7.0799999237  8.2800006866
C   2.8800001144  16.8300018311  18.9300003052
C   1.5800000429  17.6900005341  18.4700012207
C   1.9800001383  18.9300003052  19.2600021362
O   2.4300000668  18.4400005341  20.5500011444
C   2.8900001049  17.0700016022  20.4300003052
H   3.7500002384  17.3900012970  18.5500011444
H   2.9700002670  15.8000001907  18.5600013733
H   0.5900000334  17.3200016022  18.7500019073
H   1.5900001526  17.9500007629  17.4099998474
H   1.1100001335  19.5799999237  19.4200019836
H   2.8900001049  19.3600006104  18.8200016022
H   2.2999999523  16.3800010681  0.4500000179
H   3.8700003624  16.9300003052  0.3200000226
C   6.3100004196  5.0500001907  18.7300014496
C   5.7399997711  5.5500001907  17.3600006104
C   6.8500003815  6.5300006866  16.8900012970
O   7.7900004387  6.6700005531  18.0200004578
C   7.0200004578  6.3800001144  19.2000007629
H   7.1000003815  4.3100004196  18.5400009155
H   5.5900001526  4.5999999046  19.4100017548
H   4.7500000000  5.9900002480  17.5100002289
H   5.6500000954  4.8000001907  16.5699996948
H   6.3700003624  7.5200004578  16.8900012970
H   7.4000000954  6.3200001717  15.9700012207
H   6.3800001144  7.2500000000  19.4100017548
H   7.7000002861  6.1500000954  20.0200004578
C   8.4300003052  10.9700002670  18.9500007629
C   8.4500007629  10.9200000763  17.4099998474
C   7.9600005150  12.3400011063  17.0200004578
O   7.1300005913  12.8400001526  18.1200008392
C   7.1500005722  11.8900003433  19.1700000763
H   9.2700004578  11.5600004196  19.3199996948
H   8.4300003052  10.0000000000  19.4600009918
H   7.7699999809  10.1400003433  17.0600013733
H   9.4500007629  10.7000007629  17.0000000000
H   7.3300004005  12.4300003052  16.1300010681
H   8.7600002289  13.0900001526  16.9400005341
H   6.1600008011  11.4099998474  19.2500000000
H   7.2700004578  12.4300003052  20.1300010681
C   4.2200002670  11.8400001526  11.8900003433
C   2.7400002480  12.1100006104  11.3500013351
C   2.1400001049  12.7500009537  12.6000013351
O   3.2200002670  13.4300003052  13.2500000000
C   4.4500002861  13.0900001526  12.7500009537
H   5.0000000000  11.8400001526  11.1200008392
H   4.2699999809  10.8600006104  12.3800001144
H   2.0600001812  11.2800006866  11.1100006104
H   2.7400002480  12.6800003052  10.4200000763
H   1.8600000143  11.8000011444  13.0700006485
H   1.2400000095  13.3900012970  12.5500011444
H   5.0600004196  12.9600000381  13.6499996185
H   4.8100004196  14.0100002289  12.2600002289
C   5.5999999046  0.1000000089  16.1599998474
C   6.1300001144  1.3999999762  16.8000011444
C   4.8800001144  2.1200001240  17.3200016022
O   3.9300000668  1.1100001335  17.5900001526
C   4.0199999809  0.1900000125  16.4400005341
H   5.8699998856  19.7500019073  16.6300010681
H   5.8800001144  0.0100000007  15.1100006104
H   6.5800004005  2.0500001907  16.0400009155
H   6.8200006485  1.1800000668  17.6100006104
H   4.4200000763  2.8400001526  16.6300010681
H   5.1900005341  2.6300001144  18.2400016785
H   3.4500002861  0.5700000525  15.5900001526
H   3.6000001431  19.8000011444  16.6399993896
C   11.4000015259  6.9000005722  18.8300018311
C   11.8500003815  7.1800003052  20.2900009155
C   11.1900005341  8.5300006866  0.0200000014
O   11.2800006866  9.1700000763  19.3700008392
C   10.8400011063  8.3000001907  18.2800006866
H   10.5800008774  6.1900000572  18.7000007629
H   12.2300004959  6.6000003815  18.1800003052
H   12.9400005341  7.2000002861  20.2700023651
H   11.5200004578  6.3900003433  0.3700000048
H   11.6800012589  9.1700000763  0.7700001001
H   10.1100006104  8.6000003815  0.2300000191
H   11.2400007248  8.6100006104  17.3000011444
H   9.7500000000  8.4300003052  18.2500000000
C   6.4600000381  0.1600000113  8.0900001526
C   5.9500002861  19.3400020599  7.7100000381
C   6.7400002480  18.4700012207  8.7600002289
O   7.9900002480  19.1300010681  8.7700004578
C   7.7100000381  20.5200004578  8.9300003052
H   5.7200002670  0.6599999666  8.7200002670
H   6.7000002861  0.8700000644  7.2900004387
H   6.0900001526  18.9800014496  6.6800003052
H   4.9200000763  19.2500000000  8.0500011444
H   6.9300003052  17.4799995422  8.3000001907
H   6.3600006104  18.4099998474  9.7800006866
H   8.5500001907  0.5900000334  8.7300004959
H   7.4800004959  0.1100000069  9.9800004959
C   18.2800006866  15.3200006485  2.7400002480
C   18.4700012207  13.7700004578  2.7800002098
C   20.0200004578  13.6800003052  2.4300000668
O   0.0200000014  14.9400005341  2.7100002766
C   19.6800003052  15.8400011063  3.3200001717
H   17.5000019073  15.3600006104  3.5100002289
H   17.9300003052  15.9100008011  1.8900001049
H   17.8600006104  13.2700004578  2.0199999809
H   18.2800006866  13.3500003815  3.7699999809
H   20.1599998474  13.3699998856  1.3900001049
H   20.5700016022  12.8900003433  2.9700002670
H   19.8900012970  16.8800010681  3.0400002003
H   19.7500019073  15.7400016785  4.4100003242
C   16.8100013733  3.8700003624  7.9800004959
C   16.9700012207  4.1800003052  6.3900003433
C   18.3999996185  4.8800001144  6.3800001144
O   19.1200008392  4.3500003815  7.5900006294
C   18.2600002289  3.4600000381  8.3000001907
H   15.9800004959  3.1700000763  8.1500005722
H   16.4500007629  4.8000001907  8.4300003052
H   16.1700019836  4.7600002289  5.9100003242
H   17.1400012970  3.2300000191  5.8699998856
H   18.4300003052  5.9700002670  6.3500003815
H   18.8600006104  4.5900001526  5.4300003052
H   18.5200004578  3.5200002193  9.3700008392
H   18.5100002289  2.4500000477  7.9700002670
C   9.9100008011  13.1900005341  12.0800008774
C   9.3200006485  13.9800014496  10.9500007629
C   7.7900004387  13.5600004196  11.2300004959
O   7.6200003624  13.5700016022  12.6500015259
C   8.8900003433  13.6000003815  13.2500000000
H   10.9600009918  13.5000000000  12.0699996948
H   9.9300003052  12.1100006104  11.8800010681
H   9.6599998474  13.6800003052  9.9500007629
H   9.4900007248  15.0600004196  11.0100002289
H   7.6100006104  12.5400009155  10.8600006104
H   7.0500001907  14.1900005341  10.7399997711
H   9.0200004578  12.8600006104  14.0500011444
H   9.0900001526  14.5699996948  13.7100009918
C   8.1400003433  17.2200012207  3.0600001812
C   7.5700001717  18.0400009155  4.2600002289
C   8.1100006104  19.5100002289  3.9400002956
O   9.4300003052  19.3600006104  3.4900000095
C   9.5500001907  18.0000000000  2.8900001049
H   7.5399999619  17.1200008392  2.1500000954
H   8.3400001526  16.2100009918  3.4200000763
H   7.9800004959  17.7300014496  5.2300000191
H   6.4800000191  18.0100021362  4.2100005150
H   8.0700006485  20.2299995422  4.7700004578
H   7.5200004578  19.9500007629  3.1400001049
H   10.3700008392  17.4600009918  3.3800003529
H   9.7800006866  18.1600017548  1.8300001621
C   17.7100009918  8.6800003052  2.6500000954
C   18.1100006104  10.2299995422  2.6399998665
C   18.7700004578  10.4200000763  4.1200003624
O   18.7600002289  9.0700006485  4.7200002670
C   17.6599998474  8.3900003433  4.1500000954
H   18.4600009918  8.0100002289  2.2000000477
H   16.7500000000  8.5500001907  2.1500000954
H   17.2400016785  10.8900012970  2.6700000763
H   18.8400001526  10.5200004578  1.8700001240
H   18.2600002289  11.1600008011  4.7500000000
H   19.8000011444  10.7000007629  3.8400001526
H   16.7000007629  8.7300004959  4.5700001717
H   17.7300014496  7.3099999428  4.3600001335
C   2.8400001526  17.1800003052  11.7800006866
C   2.2800002098  17.9000015259  13.0600013733
C   3.2800002098  19.0500011444  13.2400016785
O   3.5200002193  19.4000015259  11.8800010681
C   3.9100003242  18.1600017548  11.2300004959
H   2.0000000000  16.9200000763  11.1200008392
H   3.2100000381  16.1800003052  12.0400009155
H   2.2700002193  17.3500022888  14.0100002289
H   1.3199999332  18.3800010681  12.8300008774
H   4.3000001907  18.8500003815  13.6000003815
H   2.8500003815  19.8600006104  13.8400001526
H   4.8900003433  17.9100017548  11.6500005722
H   3.8200001717  18.1800003052  10.1400003433
C   4.1100001335  13.8000011444  8.4500007629
C   3.9600002766  14.6100006104  7.1400003433
C   4.2800002098  16.1300010681  7.4800004959
O   4.6100001335  16.0300006866  8.8500003815
C   3.9700002670  14.9600009918  9.5300006866
H   5.0700001717  13.2700004578  8.5000000000
H   3.4200000763  12.9600000381  8.5300006866
H   2.9500002861  14.3800010681  6.7800002098
H   4.5700001717  14.2100009918  6.3299999237
H   3.3700001240  16.7300014496  7.3900003433
H   5.0799999237  16.4800014496  6.8100004196
H   2.9100000858  15.2100000381  9.6900005341
H   4.4300003052  14.8100004196  10.5100002289
C   11.7399997711  4.2600002289  11.3000001907
C   11.5100002289  3.4200000763  12.5700006485
C   10.2500009537  2.6000001431  12.1300010681
O   10.5900001526  2.2100000381  10.7700004578
C   11.4099998474  3.2100000381  10.1599998474
H   12.7299995422  4.7300000191  11.1700010300
H   11.0300006866  5.0799999237  11.1800003052
H   11.4099998474  4.0000000000  13.4900007248
H   12.3999996185  2.7999999523  12.6900005341
H   9.3299999237  3.1900000572  12.1000003815
H   10.0700006485  1.7300000191  12.7600002289
H   10.7800006866  3.7600002289  9.4500007629
H   12.2800006866  2.9000000954  9.5699996948
C   1.7000000477  8.1100006104  2.9300000668
C   1.5800000429  9.4500007629  2.1900000572
C   2.3200001717  9.1200008392  0.9200000763
O   1.8000000715  7.8300004005  0.6000000238
C   1.4800000191  7.0799999237  1.8200001717
H   0.9300000072  8.0000000000  3.7100002766
H   2.6700000763  8.1600008011  3.4300003052
H   1.9600000381  10.3299999237  2.7100002766
H   0.5300000310  9.6100006104  1.9000000954
H   3.4000000954  9.0500001907  1.1100001335
H   2.2400000095  9.8800001144  0.1400000006
H   2.2100000381  6.2600002289  1.8400001526
H   0.5100000501  6.5700001717  1.7699999809
C   6.2700004578  3.1500003338  2.5300002098
C   6.0300006866  2.1200001240  3.6700000763
C   5.3500003815  2.9200003147  4.7500000000
O   4.9000000954  4.0700001717  4.1300001144
C   5.0200004578  4.0199999809  2.6700000763
H   6.3000006676  2.7999999523  1.4900000095
H   7.1400003433  3.7800002098  2.7500000000
H   6.9700002670  1.7300000191  4.0700001717
H   5.3900003433  1.2699999809  3.4500002861
H   5.8600001335  3.0600001812  5.7100005150
H   4.3900003433  2.5000000000  5.0700001717
H   5.2500004768  4.9900002480  2.2200002670
H   4.1000003815  3.6100003719  2.2300000191
C   2.1400001049  4.4200000763  6.9000005722
C   2.4500000477  5.5600004196  5.8900003433
C   3.4400000572  6.2200002670  6.8600006104
O   2.6900002956  6.3600006104  8.0900001526
C   1.9500000477  5.2100000381  8.2100000381
H   2.9300000668  3.6600003242  7.0100002289
H   1.1800000668  3.9500000477  6.6300005913
H   1.5900001526  6.1900000572  5.6900000572
H   2.9100000858  5.2100000381  4.9500002861
H   3.9500000477  7.1199998856  6.4800000191
H   4.2800002098  5.5500001907  7.0600004196
H   1.0099999905  5.5800004005  8.6200008392
H   2.5100002289  4.6100001335  8.9400005341
C   13.9800014496  19.4700012207  3.2300000191
C   14.4400014877  18.1300010681  3.8400001526
C   13.6000003815  17.1000003815  2.9500002861
O   12.4900007248  17.7900009155  2.3400001526
C   12.5200004578  19.1300010681  2.8100001812
H   14.5500001907  19.8400001526  2.3700001240
H   13.9000015259  20.2600002289  3.9900002480
H   14.2100009918  17.9900016785  4.9000000954
H   15.4899997711  17.9100017548  3.6500000954
H   13.2600011826  16.2500019073  3.5599999428
H   14.1100006104  16.5600013733  2.1500000954
H   12.0100011826  19.2500000000  3.7699999809
H   12.1400012970  19.7900009155  2.0199999809
C   13.8100004196  20.1500015259  18.0699996948
C   12.6900005341  19.1500015259  17.7500000000
C   11.6500005722  19.4600009918  18.8500003815
O   12.2400007248  20.5300025940  19.6800003052
C   13.6499996185  20.3600006104  19.6000003815
H   13.7600002289  0.4500000179  17.4500007629
H   14.8100004196  19.7500019073  17.9100017548
H   12.9800014496  18.1000003815  17.8400001526
H   12.2200002670  19.2900009155  16.7700004578
H   11.4900007248  18.5400009155  19.4200019836
H   10.6400003433  19.7700004578  18.5600013733
H   13.9099998474  19.4600009918  20.1700019836
H   14.0900001526  0.6200000048  20.1200008392
C   14.6000003815  5.4200005531  1.6400001049
C   16.0799999237  5.7500004768  1.3400000334
C   16.6500015259  5.5300002098  2.7900002003
O   16.0200004578  4.2800002098  3.2200002670
C   14.6100006104  4.4400005341  2.8699998856
H   14.1000003815  4.8800001144  0.8200000525
H   13.9800014496  6.3299999237  1.6900001764
H   16.2700004578  6.7300004959  0.8899999857
H   16.5699996948  5.0600004196  0.6500000358
H   16.4300003052  6.3000006676  3.5399999619
H   17.7300014496  5.3699998856  2.6900002956
H   13.9300003052  4.7900004387  3.6500000954
H   14.2600011826  3.4300003052  2.6300001144
C   15.2200012207  4.1599998474  17.2800006866
C   15.3500003815  4.2899999619  18.8400001526
C   16.1000022888  2.9400000572  19.2400016785
O   16.9800014496  2.7000000477  18.1400012970
C   16.2800006866  3.0600001812  16.9300003052
H   15.4700002670  5.0500001907  16.6900005341
H   14.3000011444  3.7200000286  16.8800010681
H   14.3400001526  4.2800002098  19.2700004578
H   15.8300008774  5.2500004768  19.0800018311
H   15.4000005722  2.0900001526  19.2800006866
H   16.6800003052  3.0700001717  20.1599998474
H   15.7800006866  2.1100001335  16.7000007629
H   17.0799999237  3.3100004196  16.2200012207
C   19.1200008392  18.5400009155  6.1800003052
C   17.8100013733  18.9700012207  5.5000000000
C   16.8000011444  17.9500007629  6.0800004005
O   17.4500007629  17.2000007629  7.0799999237
C   18.6100006104  17.9300003052  7.5700001717
H   19.7500019073  19.4100017548  6.4100003242
H   19.7299995422  17.8400001526  5.5999999046
H   17.8199996948  18.8300018311  4.4100003242
H   17.5700016022  20.0300006866  5.6100006104
H   16.6100006104  17.2299995422  5.2799997330
H   15.9000005722  18.4300003052  6.5000004768
H   19.3500003815  17.3500022888  8.1400003433
H   18.3200016022  18.8900012970  8.0100002289
C   0.4000000358  1.7000000477  14.0500011444
C   20.3500003815  1.8000000715  15.4100017548
C   20.0400009155  3.3100004196  15.3900003433
O   0.7300000787  3.9000000954  14.9600009918
C   1.2900000811  2.9200003147  14.0100002289
H   20.2800006866  1.7300000191  13.2200002670
H   1.0399999619  0.8300000429  13.8700008392
H   0.3600000143  1.6100001335  16.3000011444
H   19.4800014496  1.1499999762  15.5600013733
H   19.8000011444  3.6600003242  16.4000015259
H   19.3000011444  3.7000000477  14.6800003052
H   2.3300001621  2.6300001144  14.2100009918
H   1.2000000477  3.3800003529  13.0100011826
C   9.2399997711  8.2000007629  14.1100006104
C   8.0100002289  9.2500009537  14.0200004578
C   7.8900003433  9.1999998093  12.3999996185
O   9.2700004578  9.2800006866  12.0600013733
C   10.1300001144  8.4500007629  12.8100004196
H   8.9600000381  7.1400003433  14.0000009537
H   9.7600002289  8.2100000381  15.0799999237
H   8.1700000763  10.2799997330  14.3600006104
H   7.1000003815  8.9400005341  14.5500001907
H   7.3600006104  10.0600004196  11.9600009918
H   7.4100008011  8.2600002289  12.1199998856
H   11.0900011063  8.9099998474  13.0399999619
H   10.2799997330  7.5399999619  12.2200002670
C   5.8100004196  15.3300008774  15.0300006866
C   4.7800002098  14.9200010300  16.1200008392
C   5.5800004005  15.4300012589  17.3500022888
O   5.7700004578  16.7700004578  16.9600009918
C   6.1700005531  16.7600021362  15.5399999619
H   5.3800005913  15.3600006104  14.0300006866
H   6.6400003433  14.6199998856  14.9300003052
H   4.7300000191  13.8400001526  16.2400016785
H   3.8000001907  15.3800010681  16.0000000000
H   6.5300006866  14.9000015259  17.5000019073
H   5.0700001717  15.2700004578  18.3100013733
H   7.2300004959  17.0100002289  15.4100017548
H   5.6900000572  17.5300006866  14.9400005341
C   2.1900000572  18.0200004578  5.0100002289
C   1.5300000906  18.4400005341  3.6200001240
C   2.3300001621  19.7100009918  3.4400000572
O   3.6600003242  19.2300014496  3.5900001526
C   3.7100002766  18.3299999237  4.7400002480
H   2.0799999237  16.9800014496  5.3400001526
H   1.8400001526  18.6900005341  5.8000001907
H   0.4700000286  18.6800003052  3.7300002575
H   1.5499999523  17.7200012207  2.7999999523
H   2.1000001431  20.5200004578  4.1400003433
H   2.2600002289  20.0500011444  2.4000000954
H   4.1000003815  18.8700008392  5.6100006104
H   4.3000001907  17.4300003052  4.5200004578
C   18.9099998474  1.9200000763  3.5200002193
C   19.8800010681  2.5100002289  2.4400000572
C   0.3700000048  3.2500002384  3.3600001335
O   0.4800000191  2.4000000954  4.5400004387
C   19.7100009918  1.8500000238  4.8400001526
H   18.6900005341  0.9000000358  3.2100000381
H   17.9400005341  2.4200000763  3.6100003719
H   19.4000015259  3.0299999714  1.6000001431
H   20.3199996948  1.6400001049  1.9500000477
H   20.5800018311  4.1900005341  3.7699999809
H   1.3700001240  3.4600000381  2.9700002670
H   19.2000007629  2.5699999332  5.5000000000
H   19.7800006866  0.8500000238  5.2900004387
C   9.2200002670  16.7000007629  18.2900009155
C   9.6100006104  15.7600011826  19.4300003052
C   11.1100006104  15.3900003433  19.1900024414
O   11.2100009918  15.7100009918  17.7500000000
C   9.9200000763  16.0600013733  17.1599998474
H   9.6100006104  17.7100009918  18.4700012207
H   8.1300001144  16.7900009155  18.2800006866
H   8.9400005341  14.8900012970  19.4600009918
H   9.5400009155  16.3800010681  20.3299999237
H   11.3700008392  14.3300008774  19.3100013733
H   11.8400001526  15.9700012207  19.7700004578
H   9.4000005722  15.1400003433  16.8600006104
H   10.0400009155  16.7000007629  16.2700004578
C   10.4400005341  2.2000000477  6.1100001335
C   11.2300004959  0.9400000572  5.5900001526
C   12.5700006485  1.0900000334  6.2899999619
O   12.7299995422  2.4800000191  6.7899999619
C   11.6400003433  3.2599999905  6.3100004196
H   10.1000003815  1.9500000477  7.1199998856
H   9.5500001907  2.4900002480  5.5399999619
H   11.4500007629  0.9500000477  4.5100002289
H   10.6700000763  0.0200000014  5.8000001907
H   13.4600009918  0.9000000358  5.6800003052
H   12.6800003052  0.4500000179  7.1700000763
H   12.0100011826  3.7500002384  5.4000000954
H   11.3299999237  4.0399999619  7.0100002289
C   13.9900007248  9.8600006104  10.6200008392
C   13.0300006866  10.1200008392  9.3900003433
C   12.1300010681  8.9000005722  9.4200000763
O   12.9899997711  7.8600001335  9.8400001526
C   13.7000007629  8.3600006104  10.9700002670
H   13.6800003052  10.4200000763  11.5000009537
H   15.0600004196  10.0000000000  10.4200000763
H   13.4700012207  10.0700006485  8.3900003433
H   12.4600009918  11.0500001907  9.4200000763
H   11.6900005341  8.7000007629  8.4300003052
H   11.2700004578  8.9800004959  10.1000003815
H   14.7000007629  7.8900003433  10.9600009918
H   13.0500011444  8.2300004959  11.8400001526
C   3.2300000191  10.0400009155  18.0600013733
C   3.4900000095  10.8500003815  16.7600021362
C   2.9400000572  9.9000005722  15.6400012970
O   2.6500000954  8.6100006104  16.1800003052
C   3.3100004196  8.5700006485  17.4600009918
H   2.2600002289  10.4300012589  18.3900012970
H   3.8700003624  10.2799997330  18.9099998474
H   4.5800004005  10.9700002670  16.6900005341
H   2.9700002670  11.8100013733  16.6300010681
H   3.4600000381  9.8000001907  14.6900005341
H   1.9900001287  10.2500009537  15.2300014496
H   4.3400001526  8.2400007248  17.2600002289
H   2.7500000000  7.9200005531  18.1400012970
C   19.1200008392  16.6900005341  14.1500005722
C   19.2200012207  17.0700016022  15.6300010681
C   18.5600013733  18.4400005341  15.7400016785
O   17.8100013733  18.5300006866  14.4900016785
C   18.5400009155  17.8899993896  13.4100008011
H   18.4700012207  15.8100013733  14.1000003815
H   20.0000000000  16.4300003052  13.5500001907
H   20.2299995422  17.0100002289  16.0499992371
H   18.6000022888  16.3000011444  16.0900001526
H   19.2900009155  19.2600021362  15.8199996948
H   17.8500003815  18.4900016785  16.5699996948
H   19.2600021362  18.6800003052  13.1500005722
H   17.8199996948  17.5900001526  12.6400003433
C   15.4899997711  14.2500009537  18.2100009918
C   14.6900005341  14.1500005722  19.5799999237
C   15.8500003815  14.7100009918  20.5500011444
O   16.4899997711  15.7200002670  19.7700004578
C   16.1300010681  15.6300010681  18.4099998474
H   14.8500003815  14.1200008392  17.3299999237
H   16.1599998474  13.4000005722  18.3100013733
H   14.3200006485  13.1800003052  19.9200019836
H   13.7800006866  14.7600002289  19.5600013733
H   16.6300010681  14.0300006866  0.3200000226
H   15.4100017548  15.1500015259  0.8500000238
H   17.1000003815  15.8300008774  17.9400005341
H   15.4300012589  16.4600009918  18.2200012207
C   20.4300003052  7.8500003815  17.7800006866
C   19.1399993896  8.3600006104  18.3200016022
C   18.1100006104  7.3400001526  17.5200004578
O   18.6800003052  7.3300004005  16.1900005341
C   20.1000003815  7.2000002861  16.4300003052
H   0.3200000226  7.2300004959  18.5400009155
H   0.4800000191  8.7200002670  17.6599998474
H   18.8800010681  9.3800001144  18.0200004578
H   19.0000000000  8.2800006866  19.4100017548
H   17.0400009155  7.6100006104  17.4900016785
H   18.1700000763  6.3299999237  17.9500007629
H   20.5800018311  7.6700000763  15.5700006485
H   20.3299999237  6.1300001144  16.3300018311
C   19.6400012970  6.7600007057  12.2700014114
C   18.1500015259  6.5500001907  12.6300001144
C   17.9500007629  5.0600004196  12.6300001144
O   19.2300014496  4.5400004387  12.3000001907
C   19.8800010681  5.5399999619  11.4700012207
H   20.3400020599  6.7800002098  13.1100006104
H   19.7700004578  7.7300004959  11.7800006866
H   17.5200004578  6.9300003052  11.8300008774
H   17.8400001526  7.0100002289  13.5799999237
H   17.1700019836  4.8400001526  11.8900003433
H   17.7000007629  4.7600002289  13.6600008011
H   19.3600006104  5.6600003242  10.5100002289
H   0.3600000143  5.3699998856  11.3299999237
C   20.1000003815  0.9300000072  9.5000000000
C   0.2800000012  20.4100017548  10.1000003815
C   1.6800000668  0.0100000007  9.6300010681
O   1.4800000191  0.5500000119  8.3100004196
C   0.5000000000  1.5600000620  8.5700006485
H   19.6900005341  1.6100001335  10.2500009537
H   19.2500000000  0.6200000048  8.8800010681
H   20.4700012207  19.4200019836  9.8500003815
H   0.3200000226  20.4300003052  11.1999998093
H   2.2100000381  19.6500015259  9.6900005341
H   2.1700000763  0.8000000715  10.2200012207
H   0.0500000045  1.8900001049  7.6300001144
H   0.9900000691  2.4100000858  9.0600004196
C   10.8199996948  16.6800003052  7.2400002480
C   11.0300006866  16.7700004578  8.8699998856
C   11.5700006485  18.2600002289  8.9200000763
O   12.3900012970  18.3600006104  7.7600002289
C   11.6900005341  17.7900009155  6.6200008392
H   9.7899999619  16.8800010681  6.9300003052
H   11.1800003052  15.7200002670  6.8500003815
H   11.7200002670  16.0100002289  9.2600002289
H   10.0799999237  16.6399993896  9.4000005722
H   12.1100006104  18.3999996185  9.8600006104
H   10.7100009918  18.9500007629  8.8900003433
H   12.4200010300  17.3600006104  5.9200000763
H   11.1100006104  18.6000022888  6.1500000954
C   4.9400000572  14.5100011826  3.2599999905
C   3.4700000286  14.2000007629  2.9700002670
C   3.6300001144  13.6900005341  1.4600001574
O   4.5300002098  12.6200008392  1.7200000286
C   5.5399999619  13.2300004959  2.5800001621
H   5.2200002670  14.6100006104  4.3200001717
H   5.1700000763  15.4800014496  2.8200001717
H   2.8800001144  15.1200008392  2.9800000191
H   2.9600000381  13.5300006866  3.6700000763
H   4.1400003433  14.4200000763  0.8200000525
H   2.7400002480  13.2100009918  1.0200001001
H   6.4000005722  13.5500001907  1.9900001287
H   5.9800004959  12.4900007248  3.2599999905
C   0.2599999905  3.5100002289  19.5200004578
C   1.4500000477  2.6100001335  19.1300010681
C   2.3500001431  2.7699999809  20.4000015259
O   1.9800001383  4.0700001717  0.3400000334
C   1.1600000858  4.7400002480  20.0100021362
H   20.3299999237  3.0500001907  20.3600006104
H   20.1300010681  3.6600003242  18.7100009918
H   1.9000000954  2.9700002670  18.2000007629
H   1.1900000572  1.5600000620  18.9099998474
H   3.3700001240  2.9500002861  20.0500011444
H   2.3500001431  1.9400000572  0.5100000501
H   1.7500001192  5.2000002861  19.2200012207
H   0.5500000119  5.5600004196  20.4200000763
C   17.3700008392  11.2300004959  13.6700010300
C   18.2600002289  10.6100006104  14.7700014114
C   19.7400016785  10.5800008774  14.1800012589
O   19.5900001526  10.8300008774  12.7900009155
C   18.1500015259  10.7200002670  12.4700012207
H   17.3500022888  12.3299999237  13.7200012207
H   16.3700008392  10.7899999619  13.7400007248
H   17.9000015259  9.5900001526  14.9800004959
H   18.1400012970  11.2900009155  15.6200008392
H   20.4100017548  9.7200002670  14.2700004578
H   20.4000015259  11.3500013351  14.6000003815
H   17.9200000763  9.6900005341  12.2000007629
H   17.8199996948  11.3500013351  11.6300010681
C   15.4000005722  1.1000000238  10.7300004959
C   14.8400011063  0.6299999952  9.3299999237
C   15.9200010300  20.3100013733  8.8299999237
O   16.4700012207  19.7100009918  9.9900007248
C   16.4500007629  0.0900000036  11.1200008392
H   14.6500005722  1.2400000095  11.5100002289
H   15.9100008011  2.0600001812  10.6100006104
H   14.4200000763  1.3100001812  8.5799999237
H   13.9500007629  0.0000000000  9.4100008011
H   16.7600021362  0.2200000137  8.3500003815
H   15.5100011826  19.4900016785  8.2300004959
H   17.4700012207  0.5000000000  11.1700010300
H   16.2500019073  20.0700016022  12.0000000000
C   12.7700004578  6.9800000191  5.7000007629
C   11.8200006485  7.2000002861  4.4800000191
C   12.3900012970  8.5799999237  3.8100001812
O   13.7800006866  8.5799999237  4.2000002861
C   13.8100004196  8.1800003052  5.5800004005
H   13.2800006866  6.0100002289  5.6600003242
H   12.2500000000  6.9700002670  6.6700005531
H   10.7600011826  7.2100000381  4.7500000000
H   11.8400001526  6.3900003433  3.7400002480
H   11.9600009918  9.4800004959  4.2500000000
H   12.2600002289  8.6400003433  2.7200002670
H   13.5200014114  9.0600004196  6.1700005531
H   14.8100004196  7.8600001335  5.9100003242
C   13.8600006104  16.3200016022  14.7600002289
C   14.5600013733  17.0500011444  13.5600004196
C   13.4000005722  16.9700012207  12.4600009918
O   12.3600006104  16.2400016785  13.0300006866
C   12.3200016022  16.6200008392  14.4000005722
H   14.2399997711  16.6700000763  15.7300004959
H   14.1100006104  15.2500009537  14.7100009918
H   15.5000009537  16.6000003815  13.2200002670
H   14.7500000000  18.1200008392  13.7200012207
H   13.7100009918  16.5000000000  11.5200004578
H   13.0600013733  17.9800014496  12.1900005341
H   11.6200008392  15.9100008011  14.8500003815
H   12.0000000000  17.6599998474  14.5100011826
C   6.8500003815  0.1600000113  0.2800000012
C   5.5500001907  20.0100021362  20.3400020599
C   6.1600008011  18.9600009918  19.4000015259
O   7.4600005150  19.4800014496  19.0300006866
C   8.0600004196  19.8500022888  20.3100013733
H   6.8800001144  0.2900000215  1.3600001335
H   6.9600005150  1.2000000477  20.5400009155
H   4.8700003624  0.0600000024  19.7700004578
H   4.9600000381  19.5100002289  0.5199999809
H   5.5600004196  18.7000007629  18.5300006866
H   6.3400001526  18.0100021362  19.9099998474
H   8.9900007248  20.4100017548  20.1500015259
H   8.1900005341  18.8700008392  0.1700000167
C   12.1199998856  12.7200012207  15.2700004578
C   12.8000011444  12.1500005722  16.5300006866
C   14.1900005341  11.6200008392  16.0300006866
O   14.3900003433  12.2200002670  14.8299999237
C   13.1200008392  12.1300010681  14.2000007629
H   12.1199998856  13.8200006485  15.2500009537
H   11.1000003815  12.3700008392  15.0700006485
H   12.1800003052  11.3600006104  16.9700012207
H   12.8600006104  12.9300012589  17.3000011444
H   14.2399997711  10.5300006866  15.8800010681
H   14.9700012207  11.9700002670  16.7200012207
H   12.7700004578  11.1400012970  13.9000015259
H   13.1000003815  12.8800010681  13.4000005722
C   14.7300004959  9.4500007629  19.3700008392
C   15.9300003052  10.2400007248  18.8400001526
C   16.8199996948  10.3299999237  20.1500015259
O   15.8199996948  10.6500005722  0.5500000119
C   14.7800006866  9.6400003433  0.3499999940
H   14.5699996948  8.3800010681  19.1900024414
H   13.9099998474  10.1100006104  19.0600013733
H   15.6300010681  11.2500000000  18.5200004578
H   16.4200000763  9.8400001526  17.9500007629
H   17.6800003052  11.0100002289  20.1100006104
H   17.2299995422  9.3400001526  20.3700027466
H   13.8900003433  10.1300001144  0.7700001001
H   14.9300003052  8.7300004959  0.9500000477
C   14.8600006104  6.4200000763  14.0200004578
C   13.4500007629  5.9800004959  14.5900011063
C   13.0300006866  7.1300005913  15.4700002670
O   13.6800003052  8.1900005341  14.8500003815
C   15.0900001526  7.8000001907  14.6000003815
H   14.9600009918  6.2300004959  12.9400005341
H   15.5399999619  5.7100005150  14.5200004578
H   13.5799999237  5.1100006104  15.2300014496
H   12.6800003052  5.6900000572  13.8700008392
H   13.4700012207  7.0700001717  16.4700012207
H   11.9500007629  7.2800006866  15.4800014496
H   15.4300012589  7.8900003433  15.6400012970
H   15.6100006104  8.5600004196  14.0100002289
C   5.0900001526  3.3200001717  10.0799999237
C   6.5300006866  3.2599999905  10.5700006485
C   6.3000006676  3.7200000286  12.0200004578
O   5.1800003052  2.9800000191  12.4900007248
C   4.4400005341  2.5600001812  11.2900009155
H   4.8100004196  2.8400001526  9.1400003433
H   4.7700004578  4.3600001335  9.9300003052
H   7.0799999237  4.0700001717  10.0700006485
H   7.1199998856  2.3400001526  10.5300006866
H   5.9900002480  4.7700004578  12.0000000000
H   7.1600003242  3.7500002384  12.7000007629
H   3.3600001335  2.7100002766  11.3700008392
H   4.5700001717  1.4800000191  11.1300001144
C   20.1000003815  13.6700010300  9.1800003052
C   20.5900001526  13.0500011444  7.8500003815
C   20.2100009918  14.1200008392  6.8300004005
O   20.5900001526  15.3600006104  7.4400000572
C   0.1299999952  15.0500011444  8.8800010681
H   20.4800014496  13.1400003433  10.0500001907
H   19.0000000000  13.6700010300  9.2100009918
H   20.1000003815  12.1100006104  7.5700001717
H   1.0700000525  12.8600006104  7.9099998474
H   19.1399993896  14.1100006104  6.5800004005
H   0.1400000006  13.9700012207  5.8900003433
H   20.2700023651  15.8700008392  9.4500007629
H   1.2100000381  14.9900007248  9.1000003815
C   7.0799999237  8.0600004196  4.0000000000
C   5.8900003433  8.9800004959  3.4000000954
C   6.1999998093  8.7200002670  1.9200000763
O   7.0600004196  7.5500006676  1.8700001240
C   8.0700006485  7.8400001526  2.8200001717
H   6.7200002670  7.1400003433  4.4700002670
H   7.5200004578  8.5500001907  4.8800001144
H   5.8500003815  10.0400009155  3.6700000763
H   4.9800004959  8.5500001907  3.8400001526
H   6.7400002480  9.5600004196  1.4600001574
H   5.2400007248  8.6700000763  1.3900001049
H   8.6500005722  8.6800003052  2.4300000668
H   8.7300004959  6.9800000191  3.0000000000
C   10.2500009537  13.1100006104  1.6500000954
C   9.6900005341  11.7300014496  1.9600000381
C   9.1999998093  11.7700004578  3.4100003242
O   9.4400005341  13.0900001526  3.8700003624
C   9.5600004196  13.9300003052  2.7400002480
H   10.0200004578  13.4900007248  0.6500000358
H   11.3500013351  13.0600013733  1.6500000954
H   10.3600006104  10.8900012970  1.7600001097
H   8.9000005722  11.6800012589  1.2000000477
H   9.6400003433  11.0300006866  4.0800004005
H   8.1100006104  11.6400003433  3.4900000095
H   10.0600004196  14.8900012970  2.9200003147
H   8.5300006866  13.9900007248  2.3600001335
C   7.0799999237  6.7200002670  8.0900001526
C   8.2600002289  6.7700004578  9.1000003815
C   9.4500007629  6.3600006104  8.1900005341
O   8.8299999237  5.3900003433  7.3000001907
C   7.4000000954  5.4200005531  7.2800006866
H   7.1100001335  7.5100002289  7.3300004005
H   6.1400003433  6.7300004959  8.6500005722
H   7.9700002670  6.0300006866  9.8500003815
H   8.3900003433  7.7699999809  9.5300006866
H   10.3500003815  5.9600000381  8.6700000763
H   9.6599998474  7.2400002480  7.5600004196
H   7.1199998856  4.5000000000  7.8000001907
H   6.9400000572  5.4600000381  6.2800002098
C   17.6500015259  18.7500019073  0.5000000000
C   17.6400012970  20.1800003052  20.5100021362
C   19.0100021362  20.2400016785  19.6800003052
O   19.1300010681  18.8500003815  19.1900024414
C   18.7700004578  18.0500011444  20.3299999237
H   16.7300014496  18.1700000763  0.3400000334
H   17.9500007629  18.8200016022  1.5499999523
H   17.6300010681  0.3900000155  0.6500000358
H   16.7300014496  20.2299995422  19.9099998474
H   19.8600006104  20.3400020599  20.3700027466
H   19.0800018311  0.3400000334  18.8400001526
H   19.7299995422  17.9000015259  0.2500000000
H   18.4900016785  17.0600013733  19.9400005341
C   8.7600002289  18.0000000000  11.6700000763
C   8.9300003052  17.3500022888  13.0700006485
C   8.8400001526  18.5900001526  13.9300003052
O   9.7700004578  19.4900016785  13.2300004959
C   9.7300004959  19.1700000763  11.7899999619
H   7.7400007248  18.3600006104  11.4900007248
H   8.9700002670  17.3500022888  10.8100013733
H   9.9000005722  16.8500003815  13.0700006485
H   8.1200008392  16.6900005341  13.3900012970
H   9.1700000763  18.4200019836  14.9600009918
H   7.8300004005  19.0100021362  13.8900003433
H   10.7500000000  18.8500003815  11.5800008774
H   9.3200006485  19.9700012207  11.1499996185
C   9.5200004578  1.9200000763  16.6100006104
C   9.1400003433  3.2000002861  15.9200010300
C   10.2700004578  4.2000002861  16.4099998474
O   11.3700008392  3.3100004196  16.2900009155
C   11.0400009155  1.9100000858  16.6500015259
H   9.0500001907  1.0900000334  16.0600013733
H   9.0600004196  1.8100000620  17.6000003815
H   8.1400003433  3.5300002098  16.2100009918
H   9.2399997711  3.2400000095  14.8299999237
H   10.1400003433  4.5500001907  17.4400005341
H   10.3800010681  5.0500001907  15.7300004959
H   11.2900009155  1.6600000858  17.6800003052
H   11.4500007629  1.2599999905  15.8700008392
C   0.8300000429  13.5900011063  18.0500011444
C   20.3899993896  12.6599998474  17.4400005341
C   19.3300018311  12.4499998093  18.6200008392
O   19.6800003052  13.5000000000  19.5600013733
C   20.4500007629  14.4900016785  18.9099998474
H   1.3700001240  14.1200008392  17.2600002289
H   1.6400001049  13.1200008392  18.6100006104
H   0.2400000095  11.7500009537  17.0500011444
H   19.9300022125  13.2500000000  16.6300010681
H   19.4000015259  11.4300003052  19.0200004578
H   18.3100013733  12.6900005341  18.2700004578
H   0.3400000334  15.0600004196  19.7100009918
H   19.8500022888  15.2000007629  18.3400001526
C   1.9900001287  9.6900005341  7.6200003624
C   3.4300003052  10.1300001144  7.1300005913
C   3.1200001240  10.7399997711  5.7800002098
O   1.7000000477  10.9700002670  5.7600002289
C   1.1200000048  9.8900003433  6.3600006104
H   1.6200000048  10.3600006104  8.4000005722
H   2.0000000000  8.6500005722  7.9600005150
H   4.0500001907  9.2300004959  7.0799999237
H   3.8700003624  10.7300004959  7.9300003052
H   3.4000000954  10.0200004578  5.0000000000
H   3.6900000572  11.6500005722  5.5600004196
H   1.0900000334  9.0500001907  5.6400003433
H   0.0800000057  10.1599998474  6.5600004196
