940
snapshot_id=eda_1p5m_r2_t19800ps source_time_ps=19800.000000
C   14.5300006866  1.6900001764  3.2700002193
C   15.5399999619  0.6599999666  3.8100001812
C   16.8100013733  1.1499999762  3.0800004005
O   16.3800010681  1.5300000906  1.7799999714
C   15.0000009537  1.7200000286  1.8000000715
H   14.7300004959  2.6600000858  3.7300002575
H   13.4700012207  1.5100001097  3.4500002861
H   15.3200006485  21.1199989319  3.4800002575
H   15.6400012970  0.6100000143  4.9000000954
H   17.7500000000  0.5900000334  3.1100001335
H   17.1900005341  2.0700001717  3.5399999619
H   14.5699996948  0.9400000572  1.1600000858
H   14.7800006866  2.7400002480  1.4500000477
C   8.1500005722  7.3300004005  13.1500005722
C   9.7000007629  7.4500007629  13.4500007629
C   9.9000005722  8.9600000381  13.7400007248
O   8.6300001144  9.4800004959  14.2300014496
C   7.6400003433  8.7900009155  13.5300006866
H   7.7100000381  6.5900001526  13.8200006485
H   7.7300004959  6.9200000763  12.2300004959
H   10.2299995422  7.1400003433  12.5400009155
H   9.9700002670  6.8200006485  14.3100013733
H   10.0500001907  9.4500007629  12.7700004578
H   10.7800006866  9.2300004959  14.3400001526
H   7.6300001144  9.2800006866  12.5500011444
H   6.6800003052  8.7700004578  14.0700006485
C   14.7900009155  9.5400009155  1.3600001335
C   15.1900005341  11.0200004578  1.6500000954
C   16.6600017548  10.8600006104  2.1100001335
O   17.1300010681  9.8200006485  1.1900000572
C   16.1000022888  8.8100004196  1.0700000525
H   14.1400003433  9.3900003433  0.4900000095
H   14.2300014496  9.0900001526  2.1900000572
H   14.5800008774  11.5700006485  2.3700001240
H   15.0300006866  11.5299997330  0.6900000572
H   16.6200008392  10.6000003815  3.1700000763
H   17.1300010681  11.8400001526  1.9400000572
H   16.2600002289  8.0700006485  1.8700001240
H   16.1200008392  8.3800010681  0.0600000024
C   7.9600005150  20.6800003052  15.6600008011
C   7.0200004578  0.2300000191  16.2299995422
C   7.0000004768  1.2400000095  15.0500011444
O   8.3600006104  1.2300000191  14.6100006104
C   9.0500001907  0.0800000057  15.0600004196
H   7.4500007629  19.9900016785  14.9700012207
H   8.2900009155  20.0100021362  16.4600009918
H   7.5500006676  0.6500000358  17.0799999237
H   6.1100001335  21.2300014496  16.6100006104
H   6.6400003433  2.2500000000  15.2900009155
H   6.3600006104  0.7400000095  14.3200006485
H   9.7100009918  0.4500000179  15.8500003815
H   9.5500001907  20.9400005341  14.3100013733
C   10.2200012207  18.9200000763  19.9900016785
C   11.4700012207  19.8700008392  19.9099998474
C   12.7200012207  18.9600009918  19.5900001526
O   12.1800003052  17.6100006104  19.7700004578
C   10.8600006104  17.6500015259  20.4100017548
H   9.7500000000  18.8400001526  19.0000000000
H   9.4500007629  19.1900024414  20.7300014496
H   11.6400003433  20.3100013733  20.9000015259
H   11.4600000381  20.7200012207  19.2200012207
H   13.5600004196  19.0300006866  20.2800006866
H   13.2300004959  19.0900001526  18.6200008392
H   11.0799999237  17.5100002289  21.4799995422
H   10.3500003815  16.7100009918  20.1800003052
C   0.6000000238  8.9600000381  0.3000000119
C   1.7900000811  8.7000007629  1.3199999332
C   1.5200001001  7.1900005341  1.7300000191
O   0.4100000262  6.7100000381  0.9500000477
C   21.0799999237  7.9000000954  0.7500000000
H   0.9600000381  8.6900005341  20.7800006866
H   0.1800000072  9.9700002670  0.2599999905
H   1.6800000668  9.3600006104  2.1900000572
H   2.7999999523  8.8299999237  0.9100000858
H   1.1900000572  7.1100001335  2.7699999809
H   2.3700001240  6.5000004768  1.7000000477
H   20.5700016022  8.0799999237  1.7000000477
H   20.3000030518  7.7400007248  21.4799995422
C   17.0900001526  9.7200002670  19.0300006866
C   16.2299995422  10.2799997330  17.8899993896
C   16.4600009918  9.2200002670  16.7600021362
O   16.4600009918  7.9800004959  17.6000003815
C   17.3700008392  8.2400007248  18.6800003052
H   16.6100006104  9.8200006485  20.0100021362
H   18.0800018311  10.1700010300  19.1000003815
H   16.6399993896  11.2500000000  17.5900001526
H   15.1599998474  10.5000009537  17.9400005341
H   17.4900016785  9.3100004196  16.3800010681
H   15.7200002670  9.1900005341  15.9500007629
H   18.4200019836  8.1300001144  18.4099998474
H   17.2299995422  7.6400003433  19.5900001526
C   5.9700002670  16.8199996948  11.5600004196
C   7.0400004387  17.8300018311  12.0500001907
C   7.4300003052  18.6500015259  10.7300004959
O   7.2600002289  17.7600021362  9.6599998474
C   6.5199999809  16.5400009155  10.0900001526
H   5.0200004578  17.3500022888  11.6200008392
H   5.8400006294  15.8900012970  12.1199998856
H   7.8800005913  17.1900005341  12.3100004196
H   6.8000001907  18.4500007629  12.9200000763
H   8.4500007629  19.0500011444  10.6900005341
H   6.6599998474  19.4200019836  10.7899999619
H   7.1900005341  15.7000007629  10.2700004578
H   5.8299999237  16.2000007629  9.3100004196
C   19.3400020599  12.2900009155  4.5000000000
C   20.7700004578  12.5400009155  3.9600002766
C   20.9600028992  11.3000001907  3.0500001907
O   20.5300025940  10.2200012207  3.8800001144
C   19.3500003815  10.7100009918  4.6199998856
H   18.7000007629  12.6500015259  3.6800003052
H   19.1300010681  12.8100004196  5.4400005341
H   0.0700000003  12.7900009155  4.6700000763
H   20.7500000000  13.4700012207  3.3800003529
H   0.4600000381  11.0500001907  2.6300001144
H   20.2100009918  11.4200010300  2.2500000000
H   19.6000003815  10.3600006104  5.6300001144
H   18.4600009918  10.1500015259  4.3300004005
C   4.1599998474  19.3800010681  14.7600002289
C   2.7600002289  19.3600006104  15.5399999619
C   2.4500000477  20.8800010681  15.7500000000
O   3.3299999237  0.0600000024  14.8000001907
C   3.9300000668  20.6300010681  13.9500007629
H   4.3300004005  18.5000019073  14.1400003433
H   5.0700001717  19.4100017548  15.3700008392
H   2.7800002098  18.7900009155  16.4800014496
H   1.9200000763  18.9800014496  14.9400005341
H   2.6900002956  21.1700019836  16.7900009155
H   1.3900001049  21.0900020599  15.5300006866
H   4.8500003815  21.0300025940  13.5000000000
H   3.1800003052  20.4500007629  13.1700000763
C   8.3600006104  13.5100002289  17.3800010681
C   7.7500004768  12.3800001144  18.2300014496
C   7.0500001907  13.1400003433  19.4200019836
O   8.1500005722  13.9500007629  19.7700004578
C   8.7100009918  14.5400009155  18.5100002289
H   7.6900005341  13.9700012207  16.6399993896
H   9.2899999619  13.1600008011  16.9200000763
H   8.5500001907  11.7200002670  18.5600013733
H   6.9700002670  11.8200006485  17.7100009918
H   6.7100000381  12.5300006866  20.2700023651
H   6.2300004959  13.8100004196  19.1399993896
H   9.7600002289  14.7600002289  18.7200012207
H   8.2100000381  15.5000009537  18.3600006104
C   20.0400009155  5.1200003624  4.0199999809
C   18.7600002289  6.0000000000  4.2400002480
C   19.4100017548  7.2100000381  4.9400000572
O   20.3899993896  6.6300005913  5.8100004196
C   20.9600028992  5.4600000381  5.2300000191
H   20.5800018311  5.3100004196  3.0800004005
H   19.8299999237  4.0500001907  3.9900002480
H   18.0600013733  5.4800004959  4.9000000954
H   18.2800006866  6.2899999619  3.3000001907
H   18.6599998474  7.7100000381  5.5600004196
H   19.8900012970  7.8900003433  4.2300000191
H   20.9600028992  4.6600003242  5.9800004959
H   0.5100000501  5.6100006104  4.8900003433
C   19.8000011444  4.4100003242  0.1100000069
C   19.3700008392  3.0500001907  0.4500000179
C   19.3600006104  2.3900001049  20.5200004578
O   19.2400016785  3.4500002861  19.5400009155
C   18.9899997711  4.6400003433  20.2900009155
H   20.8899993896  4.4800000191  21.4799995422
H   19.4900016785  5.1399998665  0.8600000143
H   18.3500003815  3.0400002003  0.8500000238
H   20.0500011444  2.5300002098  1.1400001049
H   18.5200004578  1.6800000668  20.5800018311
H   20.3400020599  1.9300000668  20.3199996948
H   17.9000015259  4.6600003242  20.3899993896
H   19.0900001526  5.5800004005  19.7200012207
C   14.7900009155  21.0200004578  14.6900005341
C   13.5600004196  0.5000000000  14.9600009918
C   12.8700008392  21.2600021362  16.1000022888
O   13.9600000381  20.9200000763  16.8700008392
C   14.9500007629  20.3199996948  16.0700016022
H   15.6400012970  0.1299999952  14.3400001526
H   14.6100006104  20.2900009155  13.8900003433
H   13.0800008774  0.6800000668  14.0000009537
H   13.9400005341  1.4600001574  15.3100004196
H   12.3000001907  20.3899993896  15.7400016785
H   12.2100009918  0.4000000358  16.7200012207
H   14.7300004959  19.2500000000  15.9000005722
H   16.0000000000  20.4200000763  16.3700008392
C   16.0100002289  18.0699996948  6.8700003624
C   15.6100006104  19.2600021362  7.8300004005
C   14.6300010681  20.0200004578  7.0000004768
O   13.9300003052  18.9700012207  6.2899999619
C   15.0300006866  18.2300014496  5.6900000572
H   15.9800004959  17.0600013733  7.2900004387
H   17.0200004578  18.1700000763  6.4700002670
H   16.4700012207  19.8900012970  8.0799999237
H   15.0900001526  18.8600006104  8.7000007629
H   15.1700010300  20.6300010681  6.2700004578
H   13.9500007629  20.6500015259  7.6000003815
H   15.4200000763  18.7300014496  4.7900004387
H   14.7100009918  17.2900009155  5.2100000381
C   6.6900005341  16.3500003815  1.0700000525
C   6.8500003815  15.2000007629  2.0799999237
C   8.3400001526  15.0500011444  2.1200001240
O   8.9200000763  16.3900012970  2.1300001144
C   7.9500002861  17.2200012207  1.4100000858
H   5.7100005150  16.8500003815  1.0900000334
H   6.7899999619  15.8400011063  0.1100000069
H   6.3100004196  14.2800006866  1.8200001717
H   6.4800000191  15.5700006485  3.0500001907
H   8.8400001526  14.5900011063  1.2599999905
H   8.6100006104  14.5500001907  3.0600001812
H   8.4800004959  17.6400012970  0.5500000119
H   7.5600004196  18.0800018311  1.9700001478
C   7.3800001144  1.8600000143  21.2900009155
C   8.6300001144  1.0399999619  20.9400005341
C   9.3100004196  0.8899999857  0.8500000238
O   8.7100009918  1.7699999809  1.8000000715
C   7.9800004959  2.7400002480  0.9600000381
H   6.5600004196  1.2000000477  0.1100000069
H   7.1000003815  2.5399999619  20.4599990845
H   9.3200006485  1.5200001001  20.2299995422
H   8.4600000381  0.0700000003  20.4500007629
H   10.3700008392  1.1400001049  0.7900000215
H   9.1999998093  21.3600006104  1.2500000000
H   8.7200002670  3.4200000763  0.5100000501
H   7.1700000763  3.3100004196  1.4400000572
C   10.6300010681  19.8100013733  4.7900004387
C   10.8699998856  18.4200019836  4.2500000000
C   11.7399997711  18.6000022888  2.9300000668
O   11.3500013351  19.8700008392  2.4300000668
C   11.1000003815  20.7300014496  3.5500001907
H   11.2800006866  19.9700012207  5.6600003242
H   9.6000003815  20.0000000000  5.1100006104
H   9.9000005722  17.9700012207  3.9900002480
H   11.3700008392  17.7000007629  4.9200000763
H   11.3600006104  17.8500003815  2.2200002670
H   12.7900009155  18.4900016785  3.2100000381
H   10.3900003433  0.0400000028  3.2800002098
H   12.0300006866  21.2500000000  3.8000001907
C   10.8900012970  12.2400007248  0.4900000095
C   11.8700008392  13.3400011063  0.1100000069
C   11.7899999619  14.2600011826  1.3700001240
O   11.4400005341  13.5100002289  2.4800000191
C   10.9400005341  12.2100009918  2.0199999809
H   10.9900007248  11.3000001907  21.4200019836
H   9.9000005722  12.6200008392  0.2200000137
H   11.5800008774  13.8600006104  20.6800003052
H   12.8900003433  13.0500011444  21.3100013733
H   10.9300003052  14.9200010300  1.1800000668
H   12.7000007629  14.8200016022  1.6000001431
H   9.9100008011  12.0200004578  2.3700001240
H   11.6500005722  11.4900007248  2.4300000668
C   14.1200008392  6.5500001907  14.4300003052
C   13.3900012970  5.4300003052  13.6800003052
C   13.6400012970  5.8500003815  12.2500000000
O   14.9100008011  6.4400005341  12.2700014114
C   15.1100006104  7.2100000381  13.4800004959
H   14.6500005722  6.1200003624  15.2900009155
H   13.4500007629  7.3099999428  14.8600006104
H   12.3200016022  5.3000001907  13.8700008392
H   13.9400005341  4.4900002480  13.8500013351
H   12.7800006866  6.4900007248  12.0000000000
H   13.6800003052  5.0799999237  11.4700012207
H   14.9600009918  8.2900009155  13.3400011063
H   16.1599998474  7.0799999237  13.7600002289
C   14.8800001144  9.7600002289  5.9300003052
C   14.6000003815  10.0900001526  7.4000000954
C   15.1500015259  8.8600006104  8.1700000763
O   16.3000011444  8.6300001144  7.3300004005
C   15.8300008774  8.5900001526  5.9900002480
H   15.1700010300  10.5900001526  5.2799997330
H   14.0500011444  9.1900005341  5.5000000000
H   13.5200014114  10.1000003815  7.5900006294
H   15.0200004578  11.0600004196  7.7000002861
H   14.4600009918  8.0000000000  8.1500005722
H   15.6000003815  9.0300006866  9.1500005722
H   15.3600006104  7.6300001144  5.7600002289
H   16.6800003052  8.6800003052  5.3000001907
C   1.1800000668  16.8600006104  1.7600001097
C   1.3600001335  15.5399999619  0.9100000858
C   2.7999999523  15.5800008774  0.6400000453
O   3.3200001717  16.2400016785  1.7699999809
C   2.5900001526  17.4700012207  1.8600000143
H   0.6500000358  16.6600017548  2.7000000477
H   0.6200000048  17.5900001526  1.1700000763
H   0.8300000429  15.5399999619  21.4400005341
H   1.0700000525  14.6700010300  1.5100001097
H   3.0800004005  16.2600002289  21.3100013733
H   3.1400001049  14.5600013733  0.4200000167
H   2.8600001335  18.1000003815  1.0000000000
H   2.7999999523  17.8800010681  2.8600001335
C   15.6500005722  3.1300001144  18.0500011444
C   14.5100011826  4.2899999619  17.9100017548
C   14.4700002670  4.7700004578  19.4000015259
O   14.4100008011  3.4300003052  20.1300010681
C   15.3700008392  2.5399999619  19.5100002289
H   16.6900005341  3.4800002575  18.0200004578
H   15.3600006104  2.3500001431  17.3299999237
H   13.5000000000  3.9100003242  17.7000007629
H   14.8200016022  5.1100006104  17.2600002289
H   13.5700016022  5.3800005913  19.5600013733
H   15.3900003433  5.3300004005  19.6400012970
H   14.8500003815  1.5800000429  19.4300003052
H   16.2400016785  2.4800000191  20.1800003052
C   12.5600004196  9.3200006485  18.6900005341
C   11.5800008774  10.3400001526  18.1000003815
C   10.6300010681  9.4300003052  17.3200016022
O   11.5500011444  8.5500001907  16.6900005341
C   12.8500003815  8.5200004578  17.4000015259
H   12.1100006104  8.6400003433  19.4100017548
H   13.4400005341  9.7400007248  19.1800003052
H   12.1400012970  11.0100002289  17.4400005341
H   11.0000000000  10.8699998856  18.8600006104
H   10.2200012207  10.0300006866  16.5100002289
H   9.9400005341  8.8800010681  17.9700012207
H   13.5400009155  8.8800010681  16.6200008392
H   13.1000003815  7.5200004578  17.7900009155
C   7.0900006294  2.2100000381  10.3000011444
C   7.7800006866  1.8400001526  11.7100000381
C   8.9700002670  1.1800000668  11.2600002289
O   9.3200006485  1.8000000715  9.9800004959
C   8.1600008011  1.8900001049  9.1999998093
H   6.8900003433  3.2900002003  10.2700004578
H   6.1700005531  1.6600000858  10.0799999237
H   7.2400002480  1.0500000715  12.2300004959
H   7.8500003815  2.7500000000  12.3200016022
H   8.8299999237  0.1100000069  11.0799999237
H   9.8200006485  1.2800000906  11.9500007629
H   7.9800004959  1.0200001001  8.5500001907
H   8.2200002670  2.7900002003  8.5799999237
C   2.3200001717  10.7700004578  12.9300012589
C   1.8600000143  9.5100002289  12.1100006104
C   1.6200000048  10.1200008392  10.7000007629
O   1.4100000858  11.5299997330  10.9700002670
C   1.5000000000  11.9300003052  12.3299999237
H   3.3800003529  10.8500003815  12.6800003052
H   2.0099999905  10.7300004959  13.9800014496
H   0.9400000572  9.0100002289  12.4200010300
H   2.5500001907  8.6700000763  12.2200002670
H   0.7400000095  9.6599998474  10.2299995422
H   2.4900002480  9.9600009918  10.0500001907
H   0.5199999809  12.0100011826  12.8300008774
H   1.9100000858  12.9300012589  12.5100002289
C   10.3299999237  20.0400009155  8.5799999237
C   10.9400005341  18.6100006104  8.2700004578
C   10.9200000763  18.0400009155  9.6700010300
O   11.0900011063  19.1300010681  10.5700006485
C   11.2400007248  20.3100013733  9.7500000000
H   9.2399997711  19.9400005341  8.6700000763
H   10.5399999619  20.7700004578  7.7800006866
H   11.9899997711  18.7400016785  7.9900002480
H   10.4600000381  18.1000003815  7.4300003052
H   11.7800006866  17.3700008392  9.7899999619
H   9.9600009918  17.5600013733  9.8600006104
H   12.2600002289  20.2600002289  9.3500003815
H   11.1000003815  21.2400016785  10.3200006485
C   10.0700006485  8.1500005722  9.3700008392
C   10.4000005722  6.6800003052  9.0000000000
C   11.9600009918  6.8500003815  8.6900005341
O   12.4200010300  7.9200005531  9.5000000000
C   11.3800001144  8.9500007629  9.5500001907
H   9.4600000381  8.3300008774  10.2600002289
H   9.4100008011  8.6400003433  8.6500005722
H   9.9000005722  6.3500003815  8.0799999237
H   10.0799999237  6.0000000000  9.8000001907
H   12.1600008011  7.1400003433  7.6500005722
H   12.5799999237  5.9700002670  8.8900003433
H   11.4400005341  9.5400009155  8.6300001144
H   11.4799995422  9.6400003433  10.3900003433
C   11.7500009537  1.8500000238  7.5399999619
C   12.0200004578  1.9600000381  6.0400004387
C   12.3200016022  3.4700000286  5.8200001717
O   12.8400001526  3.8500001431  7.0600004196
C   12.0699996948  3.2500002384  8.1100006104
H   12.1900005341  0.9400000572  7.9900002480
H   10.6900005341  1.6299999952  7.7000002861
H   11.2800006866  1.5200001001  5.3500003815
H   12.9700002670  1.4700000286  5.7800002098
H   11.4000015259  3.9700002670  5.5200004578
H   13.0399999619  3.6900000572  5.0200004578
H   11.1999998093  3.9100003242  8.2600002289
H   12.5799999237  3.4100003242  9.0700006485
C   4.7800002098  6.2600002289  3.6300001144
C   5.3900003433  5.8699998856  2.2700002193
C   6.7200002670  6.4900007248  2.2400000095
O   6.5000004768  7.6900005341  2.9500002861
C   5.8000001907  7.3200006485  4.1200003624
H   4.6900000572  5.4300003052  4.3400001526
H   3.8300001621  6.7899999619  3.5300002098
H   4.8200001717  6.2100005150  1.3999999762
H   5.5300002098  4.7900004387  2.1300001144
H   6.9900007248  6.8100004196  1.2300000191
H   7.5700001717  5.9200000763  2.6399998665
H   5.2600002289  8.1300001144  4.6199998856
H   6.5100002289  6.8800001144  4.8299999237
C   15.0400009155  15.4800014496  10.5900001526
C   14.2800006866  16.6800003052  11.1600008011
C   15.3800010681  17.6300010681  11.6400003433
O   16.3200016022  16.6600017548  12.1800003052
C   16.3100013733  15.4400005341  11.3600006104
H   15.2300014496  15.6300010681  9.5200004578
H   14.3900003433  14.6000003815  10.6600008011
H   13.6800003052  16.4300003052  12.0400009155
H   13.6400012970  17.2400016785  10.4600000381
H   15.0000009537  18.3999996185  12.3100004196
H   15.8800010681  18.0600013733  10.7600011826
H   16.4800014496  14.5200004578  11.9300003052
H   17.1900005341  15.5200004578  10.7000007629
C   6.7100000381  11.1600008011  9.9400005341
C   5.2100000381  10.9300003052  10.0100002289
C   4.6800003052  12.3700008392  9.9800004959
O   5.7700004578  13.1300010681  10.4400005341
C   6.7600007057  12.2800006866  10.9200000763
H   6.9900007248  11.5100002289  8.9400005341
H   7.2400002480  10.2299995422  10.2000007629
H   4.9800004959  10.3100004196  10.8800010681
H   4.8500003815  10.3900003433  9.1300001144
H   3.7899999619  12.2900009155  10.6200008392
H   4.4700002670  12.6700010300  8.9500007629
H   6.5300006866  11.9000005722  11.9200000763
H   7.7300004959  12.7800006866  11.0000000000
C   4.2400002480  21.4700012207  7.8800005913
C   3.5800001621  20.5000019073  8.8200006485
C   3.4800002575  21.3200016022  10.0200004578
O   2.9000000954  1.0700000525  9.4800004959
C   3.6600003242  1.3600001335  8.2600002289
H   4.0700001717  21.2400016785  6.8200006485
H   5.3100004196  21.4099998474  8.0799999237
H   4.0800004005  19.5400009155  8.9800004959
H   2.5800001621  20.2299995422  8.4700002670
H   4.4700002670  0.1299999952  10.3900003433
H   2.8300001621  20.9500007629  10.8300008774
H   4.4100003242  2.1400001049  8.4800004959
H   2.9800000191  1.6299999952  7.4500007629
C   18.3200016022  13.2800006866  19.8700008392
C   18.6500015259  14.6100006104  20.6300010681
C   19.1700000763  14.1100006104  0.5100000501
O   20.0100021362  12.9500007629  0.1500000060
C   19.1700000763  12.1600008011  20.7000007629
H   18.5700016022  13.2700004578  18.8000011444
H   17.2500000000  13.1100006104  20.0100021362
H   17.8100013733  15.3100004196  20.7000007629
H   19.5500011444  15.1100006104  20.2500000000
H   18.4600009918  13.7800006866  1.2800000906
H   19.8100013733  14.8900012970  0.9400000572
H   18.4500007629  11.5900001526  21.2900009155
H   19.8000011444  11.4700012207  20.1100006104
C   20.6400012970  16.7500000000  17.5400009155
C   0.2599999905  15.9400005341  18.3000011444
C   1.4100000858  16.9800014496  18.5200004578
O   0.9700000286  18.1800003052  17.9400005341
C   0.0800000057  17.7700004578  16.8600006104
H   19.8800010681  17.2100009918  18.1900005341
H   20.1100006104  16.1800003052  16.7700004578
H   0.6000000238  15.1500015259  17.6100006104
H   21.4099998474  15.3600006104  19.1700000763
H   2.3300001621  16.7300014496  17.9700012207
H   1.6900001764  17.1400012970  19.5700016022
H   0.6500000358  17.3000011444  16.0499992371
H   21.1300010681  18.7000007629  16.4700012207
C   11.8400001526  17.3800010681  15.4800014496
C   10.6000003815  18.0699996948  14.7800006866
C   9.5600004196  16.9300003052  14.8299999237
O   9.7000007629  16.4800014496  16.1500015259
C   11.0799999237  16.4600009918  16.5500011444
H   12.5600004196  18.0600013733  15.9400005341
H   12.4700012207  16.8199996948  14.7900009155
H   10.6700000763  18.4099998474  13.7400007248
H   10.2900009155  18.8700008392  15.4600009918
H   9.8100004196  16.0900001526  14.1700000763
H   8.5200004578  17.2800006866  14.7300004959
H   11.4300003052  15.4200000763  16.4800014496
H   11.1700010300  16.7800006866  17.5900001526
C   8.7500009537  15.6600008011  6.1100001335
C   7.6500005722  14.6700010300  5.6700000763
C   7.5799999237  13.7000007629  6.9200000763
O   8.8900003433  13.8100004196  7.4200005531
C   9.2800006866  15.1900005341  7.4900002480
H   8.3300008774  16.6399993896  6.3200001717
H   9.6200008392  15.8300008774  5.4700002670
H   7.8100004196  13.9500007629  4.8600001335
H   6.7200002670  15.1800012589  5.4200005531
H   7.2600002289  12.6700010300  6.7000002861
H   6.8400001526  14.0600004196  7.6400003433
H   10.3500003815  15.3100004196  7.6600003242
H   8.6400003433  15.6400012970  8.2600002289
C   19.9099998474  18.4900016785  3.6900000572
C   19.2200012207  17.2500000000  3.0000000000
C   18.9099998474  16.4000015259  4.1900005341
O   20.1200008392  16.5600013733  4.9800004959
C   20.4400024414  17.9400005341  5.0399999619
H   19.1500015259  19.2600021362  3.8500001431
H   20.7100009918  18.8400001526  3.0200002193
H   19.7900009155  16.7200012207  2.2300000191
H   18.3400001526  17.5800018311  2.4500000477
H   18.7700004578  15.3600006104  3.8800001144
H   18.0400009155  16.7100009918  4.7900004387
H   0.0200000014  18.1300010681  5.1800003052
H   19.9600009918  18.4400005341  5.8900003433
C   19.9000015259  0.1100000069  15.9800004959
C   20.4400024414  1.5200001001  16.4000015259
C   19.0699996948  2.2400000095  16.3500003815
O   18.6400012970  1.8800001144  15.0400009155
C   18.8200016022  0.4500000179  14.9200010300
H   19.3100013733  21.2200012207  16.8199996948
H   20.5900001526  20.8100013733  15.6500005722
H   21.1300010681  1.8900001049  15.6300010681
H   21.0300025940  1.5400002003  17.3200016022
H   19.2000007629  3.3200001717  16.4000015259
H   18.3700008392  1.9400000572  17.1400012970
H   19.2500000000  0.2800000012  13.9300003052
H   17.8400001526  21.4500026703  15.0500011444
C   11.0000000000  7.3300004005  1.5300000906
C   11.7300014496  6.5300006866  0.4400000274
C   12.2700014114  5.2300000191  1.1800000668
O   12.0800008774  5.5399999619  2.6000001431
C   10.8600006104  6.2500000000  2.7300000191
H   9.9800004959  7.6200003624  1.2500000000
H   11.6200008392  8.1700000763  1.8700001240
H   12.6700010300  7.0600004196  0.3000000119
H   11.2300004959  6.5500001907  20.9500007629
H   13.3400011063  5.1900005341  0.9300000072
H   11.6800012589  4.3100004196  1.0300000906
H   10.8199996948  6.7600007057  3.7000000477
H   10.1000003815  5.4800004959  2.5699999332
C   2.3500001431  10.1300001144  5.1900005341
C   1.7900000811  8.7900009155  5.5800004005
C   0.9800000191  9.1900005341  6.8500003815
O   1.9500000477  10.0500001907  7.5500006676
C   2.7000000477  10.8100013733  6.5800004005
H   1.6200000048  10.7899999619  4.7100000381
H   3.1700000763  10.0799999237  4.4600000381
H   2.6100001335  8.1000003815  5.7900004387
H   1.2100000381  8.3199996948  4.7800002098
H   0.7900000215  8.2700004578  7.4200005531
H   0.0200000014  9.6400003433  6.5800004005
H   3.7200000286  10.8000001907  7.0000004768
H   2.3300001621  11.8400001526  6.5800004005
C   0.6299999952  21.3700008392  1.4700000286
C   21.3000011444  20.7100009918  0.3700000048
C   0.9800000191  20.4700012207  20.8100013733
O   1.6800000668  0.2000000179  20.8400001526
C   1.6700000763  0.7300000787  0.6999999881
H   1.1000000238  20.6800003052  2.1800000668
H   21.4099998474  0.4800000191  2.0600001812
H   20.5400009155  21.4099998474  0.0100000007
H   20.7700004578  19.7900009155  0.6599999666
H   0.5900000334  20.3400020599  19.7900009155
H   1.5900001526  19.6200008392  21.1400012970
H   1.4900000095  1.8000000715  0.5600000024
H   2.6500000954  0.6299999952  1.2000000477
C   20.2200012207  12.0400009155  15.3500003815
C   18.9700012207  11.7700004578  14.4300003052
C   19.3900012970  12.4600009918  13.1200008392
O   20.2100009918  13.5900011063  13.5200014114
C   20.2500000000  13.5700016022  14.9800004959
H   21.1100006104  11.5000009537  15.0200004578
H   20.1100006104  11.9300003052  16.4400005341
H   18.0400009155  12.2100009918  14.8200016022
H   18.7100009918  10.7100009918  14.3500003815
H   18.5200004578  12.7100000381  12.5100002289
H   19.9700012207  11.8200006485  12.4400005341
H   19.4300003052  14.1599998474  15.4100017548
H   21.1400012970  13.9900007248  15.4500007629
C   2.9200003147  4.0300002098  18.1100006104
C   4.2000002861  3.7100002766  17.3100013733
C   5.2200002670  3.2700002193  18.4500007629
O   4.4700002670  3.5100002289  19.6599998474
C   3.0900001526  3.2400000095  19.4200019836
H   2.0000000000  3.7800002098  17.5600013733
H   2.8500003815  5.0900001526  18.3800010681
H   4.4900002480  4.5300002098  16.6300010681
H   3.9400002956  2.9100000858  16.6100006104
H   6.1900000572  3.7600002289  18.5700016022
H   5.3800005913  2.1900000572  18.3600006104
H   2.4200000763  3.5500001907  20.2299995422
H   2.9500002861  2.1700000763  19.2500000000
C   15.6800003052  16.2100009918  16.4500007629
C   15.2800006866  15.6200008392  17.8500003815
C   14.4800004959  14.3400001526  17.5300006866
O   14.9700012207  13.9200010300  16.2200012207
C   15.9400005341  14.8400011063  15.7600011826
H   16.6200008392  16.7800006866  16.4000015259
H   14.8299999237  16.8000011444  16.0799999237
H   14.6400012970  16.1800003052  18.5500011444
H   16.1200008392  15.3200006485  18.4799995422
H   13.4000005722  14.5200004578  17.5100002289
H   14.5699996948  13.5500001907  18.2900009155
H   15.9700012207  15.0000009537  14.6800003052
H   16.9300003052  14.5200004578  16.1000022888
C   3.7500002384  15.4100017548  13.7400007248
C   4.7300000191  14.8299999237  14.7900009155
C   3.9800002575  13.5700016022  15.1599998474
O   2.6600000858  14.0000009537  15.2900009155
C   2.4100000858  14.9700012207  14.3000011444
H   3.9200000763  15.0200004578  12.7299995422
H   3.7899999619  16.5100002289  13.7000007629
H   4.7800002098  15.5100011826  15.6500005722
H   5.7600002289  14.6199998856  14.4700002670
H   4.2500000000  13.2000007629  16.1500015259
H   3.9900002480  12.8500003815  14.3300008774
H   2.0400002003  15.8100013733  14.8900012970
H   1.7100000381  14.6900005341  13.5100002289
C   0.6900000572  16.0499992371  9.0000000000
C   1.1700000763  17.5100002289  9.3200006485
C   2.5900001526  17.1499996185  9.7899999619
O   2.3099999428  16.0900001526  10.7500000000
C   1.1700000763  15.2600002289  10.2700004578
H   1.0200001001  15.6200008392  8.0500011444
H   21.0900020599  16.1300010681  8.9500007629
H   0.6900000572  18.0699996948  10.1300001144
H   1.2100000381  18.1100006104  8.4000005722
H   3.1400001049  17.9800014496  10.2400007248
H   3.1600000858  16.8400020599  8.9099998474
H   0.3600000143  14.9800004959  10.9400005341
H   1.5499999523  14.2600011826  10.0400009155
C   2.1300001144  2.9900002480  4.9600000381
C   2.0700001717  3.5800001621  3.5599999428
C   3.2700002193  2.8300001621  3.0299999714
O   2.9700002670  1.4800000191  3.3900001049
C   2.6100001335  1.5800000429  4.7300000191
H   1.1300001144  2.9600000381  5.4000000954
H   2.8500003815  3.6300001144  5.4900002480
H   2.1800000668  4.6600003242  3.3900001049
H   1.2300000191  3.3200001717  2.9100000858
H   4.2400002480  3.0700001717  3.4700000286
H   3.3400001526  2.9900002480  1.9500000477
H   3.4000000954  1.1499999762  5.3500003815
H   1.7900000811  0.8700000644  4.8700003624
C   15.0300006866  17.4799995422  0.8100000024
C   15.2100000381  16.2900009155  21.2600021362
C   15.5700006485  15.1100006104  0.6999999881
O   16.1800003052  15.7500000000  1.8400001526
C   15.4400005341  16.9700012207  2.2200002670
H   14.0000009537  17.8500003815  0.8500000238
H   15.7700004578  18.2400016785  0.5400000215
H   15.9400005341  16.6100006104  20.5100021362
H   14.2899999619  16.0000000000  20.7400016785
H   16.2100009918  14.3600006104  0.2200000137
H   14.5800008774  14.6800003052  0.9100000858
H   16.0600013733  17.7200012207  2.7300000191
H   14.6700010300  16.5800018311  2.9000000954
C   4.9700002670  20.0200004578  20.2200012207
C   6.1200003624  18.9899997711  20.2700023651
C   5.8800001144  18.1400012970  19.0000000000
O   4.6900000572  18.6900005341  18.4200019836
C   3.8700003624  19.2500000000  19.4300003052
H   5.2100000381  20.8500003815  19.5500011444
H   4.5999999046  20.3800010681  21.1900024414
H   5.8500003815  18.3400001526  21.1000022888
H   7.0900006294  19.5000000000  20.3100013733
H   5.7000007629  17.0900001526  19.2700004578
H   6.6100001335  18.3400001526  18.2000007629
H   3.3600001335  18.5000019073  20.0500011444
H   3.1500003338  19.8900012970  18.9099998474
C   17.3700008392  19.4300003052  18.7500019073
C   16.3400001526  20.6000022888  19.0800018311
C   16.6900005341  20.9300022125  20.5599994659
O   17.8199996948  20.1000003815  20.9300022125
C   18.5000019073  19.7700004578  19.6700019836
H   17.7700004578  19.6000003815  17.7399997711
H   16.9900016785  18.4099998474  18.8900012970
H   15.2800006866  20.3600006104  18.9099998474
H   16.6700000763  0.0300000012  18.5700016022
H   15.8199996948  20.6599998474  21.1800003052
H   16.7800006866  0.5400000215  20.6800003052
H   19.1100006104  18.8700008392  19.7900009155
H   19.1000003815  20.6300010681  19.3500003815
C   7.2000002861  2.1600000858  5.1300001144
C   8.3699998856  3.1700000763  4.7300000191
C   8.4900007248  3.9300000668  6.0500001907
O   7.1100001335  4.1100001335  6.4900007248
C   6.2800002098  3.0800004005  5.8400006294
H   7.5600004196  1.2800000906  5.6600003242
H   6.8600006104  1.7100000381  4.1900005341
H   8.0200004578  3.8400001526  3.9400002956
H   9.3600006104  2.7800002098  4.5200004578
H   9.0400009155  4.8800001144  6.1100001335
H   9.0600004196  3.2900002003  6.7300004959
H   5.5399999619  3.5300002098  5.1600003242
H   5.7100005150  2.5399999619  6.6100001335
C   5.1200003624  19.4300003052  4.0500001907
C   5.1100006104  19.8000011444  2.5600001812
C   6.5100002289  20.4400024414  2.3900001049
O   7.1600003242  20.4500007629  3.6500000954
C   6.0500001907  20.4700012207  4.6400003433
H   5.6100006104  18.4500007629  4.1700000763
H   4.1200003624  19.3300018311  4.5100002289
H   4.2899999619  20.4800014496  2.3200001717
H   4.8900003433  18.9000015259  1.9800001383
H   6.3500003815  0.0100000007  2.1300001144
H   7.2300004959  19.9200019836  1.7500001192
H   5.5800004005  21.4600009918  4.6600003242
H   6.3299999237  20.2500000000  5.6800003052
C   20.3199996948  6.6599998474  16.8000011444
C   20.2299995422  7.7400007248  15.7600011826
C   0.2400000095  7.8400001526  15.4300012589
O   0.8300000429  8.0300006866  16.7600021362
C   0.0900000036  7.1400003433  17.6200008392
H   20.6300010681  5.7000007629  16.3600006104
H   19.4600009918  6.4900007248  17.4600009918
H   19.8000011444  8.6600008011  16.1700019836
H   19.6200008392  7.4300003052  14.9000015259
H   0.4600000381  8.7500009537  14.8600006104
H   0.6000000238  6.9200000763  14.9500007629
H   21.2100009918  7.8000001907  18.4099998474
H   0.6200000048  6.2700004578  18.0300006866
C   10.0900001526  10.9500007629  5.7700004578
C   10.3500003815  9.7200002670  4.8700003624
C   9.3100004196  8.6400003433  5.3500003815
O   8.8299999237  9.2399997711  6.5800004005
C   8.6800003052  10.6900005341  6.4000005722
H   10.2200012207  11.9500007629  5.3400001526
H   10.8500003815  10.9600009918  6.5500001907
H   11.3700008392  9.3100004196  4.8200001717
H   10.1300001144  10.0900001526  3.8700003624
H   9.7899999619  7.6900005341  5.6100006104
H   8.3800010681  8.4700002670  4.7800002098
H   8.4000005722  11.1800003052  7.3300004005
H   7.9300003052  10.9500007629  5.6400003433
C   13.4800004959  13.4900007248  5.9300003052
C   14.5100011826  14.1500005722  6.9900007248
C   15.7600011826  13.6900005341  6.2400002480
O   15.4899997711  13.4600009918  4.8400001526
C   14.1200008392  13.9700012207  4.5999999046
H   12.5200004578  13.9600000381  6.1500000954
H   13.5100002289  12.3999996185  6.0599999428
H   14.4400014877  13.7200012207  7.9900002480
H   14.3000011444  15.2300014496  6.9900007248
H   16.0700016022  12.7100000381  6.6200008392
H   16.6000003815  14.4000005722  6.2400002480
H   13.6600008011  13.6000003815  3.6700000763
H   14.1700000763  15.0600004196  4.4900002480
C   2.4800000191  11.7399997711  18.2100009918
C   1.8100000620  11.1300001144  19.4900016785
C   1.8200001717  12.3100004196  20.4700012207
O   2.7300000191  13.2600011826  19.8800010681
C   3.5100002289  12.6100006104  18.8800010681
H   1.7500001192  12.2800006866  17.6000003815
H   2.9900002480  11.0100002289  17.5700016022
H   2.3600001335  10.3100004196  19.9500007629
H   0.8200000525  10.7300004959  19.2700004578
H   2.1700000763  11.9800004959  21.4500026703
H   0.7700001001  12.6500015259  20.5100021362
H   4.2600002289  11.9899997711  19.4000015259
H   4.0500001907  13.3600006104  18.2900009155
C   14.2100009918  11.2200012207  11.7300014496
C   14.2000007629  12.2100009918  12.8800010681
C   15.2600002289  11.5800008774  13.7600002289
O   16.1300010681  10.7899999619  12.8500003815
C   15.7400016785  10.9100008011  11.5200004578
H   13.7400007248  11.6599998474  10.8400011063
H   13.7100009918  10.3500003815  12.1800003052
H   13.2300004959  12.3299999237  13.3699998856
H   14.5500001907  13.2100009918  12.5799999237
H   14.8500003815  11.0200004578  14.6100006104
H   15.8100013733  12.4700012207  14.0900001526
H   16.0700016022  10.0100002289  10.9800004959
H   16.2100009918  11.7899999619  11.0600004196
C   5.2100000381  8.3100004196  17.5000019073
C   5.2200002670  7.9000000954  18.9899997711
C   6.5800004005  7.1100001335  19.0699996948
O   7.3900003433  7.8500003815  18.1900005341
C   6.6900005341  8.0600004196  16.9700012207
H   4.9500002861  9.3700008392  17.3299999237
H   4.4700002670  7.8300004005  16.8500003815
H   4.3500003815  7.3200006485  19.3300018311
H   5.2799997330  8.7700004578  19.6500015259
H   6.4500002861  6.0700006485  18.7300014496
H   6.9700002670  7.1700000763  20.1000003815
H   6.8000001907  7.0700001717  16.5200004578
H   7.1900005341  8.7800006866  16.3100013733
C   4.3800001144  6.1100001335  8.2600002289
C   4.6500005722  7.5100002289  8.7200002670
C   5.2600002289  7.4300003052  10.0500001907
O   5.3500003815  6.0500001907  10.2700004578
C   5.5000000000  5.4099998474  8.9800004959
H   4.5200004578  5.8900003433  7.2000002861
H   3.3800003529  5.7800002098  8.5500001907
H   3.6600003242  7.9600005150  8.8699998856
H   5.1100006104  8.1900005341  7.9900002480
H   4.7200002670  7.9700002670  10.8300008774
H   6.2400002480  7.9200005531  10.0400009155
H   5.4200005531  4.3300004005  9.1200008392
H   6.4600000381  5.7200002670  8.5600004196
C   9.5500001907  3.0500001907  17.4200019836
C   9.2399997711  4.3600001335  16.6500015259
C   10.0500001907  5.4400005341  17.4200019836
O   11.0500001907  4.7000002861  18.1400012970
C   10.4400005341  3.5000002384  18.6000022888
H   10.0200004578  2.3300001621  16.7399997711
H   8.6100006104  2.6000001431  17.7700004578
H   8.2000007629  4.6199998856  16.8500003815
H   9.4700002670  4.2500000000  15.5900001526
H   9.3600006104  5.9700002670  18.1000003815
H   10.4700002670  6.2400002480  16.7900009155
H   9.8299999237  3.6000001431  19.5000000000
H   11.3100004196  2.8699998856  18.8400001526
C   6.3299999237  10.7500000000  1.4500000477
C   6.5800004005  11.3900003433  2.8600001335
C   5.1800003052  11.8000011444  3.3800003529
O   4.2600002289  11.1300001144  2.5100002289
C   4.8400001526  11.1000003815  1.2400000095
H   6.3500003815  9.6599998474  1.4700000286
H   7.1600003242  10.8800010681  0.7400000095
H   7.1900005341  12.2800006866  2.7200002670
H   7.0700001717  10.6100006104  3.4500002861
H   5.0600004196  12.8700008392  3.1900000572
H   4.8900003433  11.5700006485  4.4200000763
H   4.7700004578  12.1000003815  0.8000000715
H   4.1599998474  10.4700002670  0.6500000358
C   2.4600000381  14.7400007248  5.3100004196
C   2.4900002480  16.2700004578  5.5999999046
C   3.8700003624  16.5800018311  6.0700006485
O   4.0800004005  15.4500007629  6.9200000763
C   3.5599999428  14.3000011444  6.2700004578
H   2.7300000191  14.5699996948  4.2600002289
H   1.5000000000  14.2899999619  5.5600004196
H   1.7100000381  16.6399993896  6.2800002098
H   2.2300000191  16.7700004578  4.6600003242
H   3.9300000668  17.4900016785  6.6900005341
H   4.6400003433  16.5100002289  5.2900004387
H   3.2400000095  13.6700010300  7.1100001335
H   4.3600001335  13.7400007248  5.7600002289
C   10.1900005341  14.0800008774  11.8500003815
C   10.9200000763  12.8600006104  11.2900009155
C   11.5600004196  13.5300006866  10.0400009155
O   11.7200002670  14.9300003052  10.3000011444
C   11.4000015259  15.1000013351  11.7200002670
H   9.9000005722  13.9900007248  12.9099998474
H   9.3400001526  14.3400001526  11.2100009918
H   10.3000011444  11.9899997711  11.0699996948
H   11.7100000381  12.5300006866  11.9800004959
H   10.8300008774  13.4600009918  9.2200002670
H   12.4900007248  13.0399999619  9.7300004959
H   11.0200004578  16.1200008392  11.8700008392
H   12.2500000000  14.9400005341  12.3999996185
N   15.9800004959  4.6900000572  10.0799999237
C   15.8100013733  5.0600004196  8.6400003433
C   16.1100006104  4.0000000000  7.5700001717
N   15.4300012589  2.7500000000  7.9300003052
H   15.7900009155  5.5200004578  10.6400003433
H   16.9200000763  4.4000000954  10.3400001526
H   16.5400009155  5.8699998856  8.5000000000
H   14.8100004196  5.4700002670  8.5000000000
H   17.2000007629  3.8300001621  7.5300002098
H   15.6800003052  4.2899999619  6.6100001335
H   15.3400001526  2.9200003147  8.9300003052
H   14.5000000000  2.7800002098  7.5300002098
N   2.3500001431  5.8000001907  10.8800010681
C   1.2200000286  5.7600002289  9.9200000763
C   1.0300000906  4.3400001526  9.1500005722
N   0.6800000668  3.3100004196  10.0900001526
H   2.0900001526  5.2000002861  11.6700000763
H   3.2200002670  5.4400005341  10.5000009537
H   1.2800000906  6.5000004768  9.1100006104
H   0.3299999833  6.0400004387  10.4899997711
H   1.9900001287  4.2800002098  8.6200008392
H   0.2500000000  4.3300004005  8.3800010681
H   0.6800000668  2.4600000381  9.5400009155
H   1.5200001001  3.1600000858  10.6500005722
N   0.0500000045  0.5400000215  7.2600002289
C   20.8800010681  21.2700004578  6.1999998093
C   20.2700023651  0.8000000715  5.1700000763
N   19.3100013733  1.6400001049  5.8200001717
H   0.2599999905  21.3000011444  7.9400005341
H   20.7400016785  1.0500000715  7.6500005722
H   20.1400012970  20.5400009155  6.5400004387
H   0.1800000072  20.6100006104  5.8000001907
H   19.8000011444  0.3499999940  4.2899999619
H   21.0400009155  1.5000000000  4.8200001717
H   18.7400016785  1.0700000525  6.4400005341
H   19.7200012207  2.2500000000  6.5300006866
N   17.7500000000  0.7400000095  8.0200004578
C   18.1100006104  0.5900000334  9.4600000381
C   17.1000003815  1.2400000095  10.5000009537
N   15.8000001907  0.4500000179  10.4000005722
H   17.0500011444  0.0400000028  7.7400007248
H   17.1900005341  1.5900001526  7.9800004959
H   19.0200004578  1.1900000572  9.5800008774
H   18.2500000000  21.0200004578  9.7300004959
H   16.9600009918  2.3099999428  10.3200006485
H   17.5100002289  1.3400000334  11.5100002289
H   15.2900009155  0.9100000858  11.1499996185
H   15.3200006485  0.6800000668  9.5400009155
N   19.0600013733  4.4800000191  11.0799999237
C   18.6599998474  4.4100003242  12.5500011444
C   20.0000000000  4.3500003815  13.4000005722
N   20.9300022125  3.2500002384  13.0399999619
H   19.8900012970  3.9000000954  11.0100002289
H   19.3000011444  5.4600000381  10.9100008011
H   18.2100009918  3.4500002861  12.8100004196
H   17.9600009918  5.2100000381  12.8200006485
H   19.6300010681  4.1400003433  14.4200000763
H   20.5100021362  5.3200001717  13.3699998856
H   20.3899993896  2.3900001049  13.0700006485
H   21.2100009918  3.3500001431  12.0699996948
N   5.0799999237  4.3200001717  12.4900007248
C   4.3900003433  3.0299999714  12.2500000000
C   3.2200002670  2.7800002098  13.2000007629
N   2.3300001621  4.0399999619  13.1700000763
H   4.3300004005  5.0100002289  12.5600004196
H   5.6800003052  4.6800003052  11.7399997711
H   5.0300002098  2.1600000858  12.4499998093
H   4.0000000000  2.8200001717  11.2500000000
H   3.5800001621  2.6600000858  14.2300014496
H   2.6200003624  1.9300000668  12.8600006104
H   1.3700001240  3.7200000286  13.2300004959
H   2.6100001335  4.5700001717  13.9900007248
N   18.5300006866  7.9400005341  12.1800003052
C   19.6000003815  8.2400007248  11.2700004578
C   19.1700000763  8.1700000763  9.8500003815
N   18.0200004578  9.0900001526  9.6400003433
H   17.9200000763  8.7300004959  11.9700002670
H   17.9200000763  7.2200007439  11.7899999619
H   20.3100013733  7.4000000954  11.3100004196
H   19.9900016785  9.2200002670  11.5500011444
H   18.9400005341  7.1800003052  9.4400005341
H   20.0100021362  8.5600004196  9.2600002289
H   18.2700004578  10.0700006485  9.5900001526
H   17.6400012970  8.8400001526  8.7300004959
N   21.1800003052  12.2800006866  7.7900004387
C   19.9400005341  11.7200002670  8.4500007629
C   19.1100006104  12.8800010681  9.0800008774
N   18.7600002289  13.7800006866  7.8500003815
H   0.2100000083  12.9700002670  8.3300008774
H   0.2900000215  11.4600000381  7.6600003242
H   20.1400012970  11.0000000000  9.2500009537
H   19.3700008392  11.1100006104  7.7400007248
H   19.8000011444  13.3900012970  9.7700004578
H   18.1600017548  12.5500011444  9.5100002289
H   19.5700016022  13.6600008011  7.2400002480
H   18.8400001526  14.7600002289  8.1300001144
N   18.4700012207  19.0600013733  12.5600004196
C   19.5799999237  18.4500007629  11.9400005341
C   20.0000000000  17.1499996185  12.6200008392
N   19.1200008392  16.0400009155  12.3100004196
H   17.7399997711  18.3600006104  12.6100006104
H   18.0600013733  19.7299995422  11.9100008011
H   20.4200000763  19.1100006104  12.1900005341
H   19.3300018311  18.3100013733  10.8800010681
H   20.0000000000  17.2000007629  13.7200012207
H   20.9799995422  16.8500003815  12.2200002670
H   19.2300014496  15.2700004578  12.9600000381
H   18.1400012970  16.3200016022  12.2300004959
