768
snapshot_id=pure_eda_r2_t16500ps source_time_ps=16500.000000
N   11.9899997711  16.6300010681  9.5500001907
C   10.7600011826  16.8500003815  10.3200006485
C   9.8600006104  17.9000015259  9.6700010300
N   10.5700006485  19.2200012207  9.4300003052
H   12.2000007629  17.5500011444  9.1400003433
H   11.8600006104  16.0100002289  8.7500009537
H   10.9800004959  17.4000015259  11.2400007248
H   10.1700010300  15.9400005341  10.5000009537
H   9.0000000000  18.1900005341  10.2799997330
H   9.4900007248  17.4900016785  8.7300004959
H   10.6900005341  0.3200000226  10.3100004196
H   10.0000000000  0.4500000179  8.8699998856
N   6.7600007057  3.6200001240  15.3200006485
C   6.5500001907  2.4700000286  16.1500015259
C   7.5600004196  2.5100002289  17.3100013733
N   8.8600006104  2.2700002193  16.8100013733
H   7.6600003242  3.6600003242  14.8600006104
H   6.8400001526  4.4200000763  15.9500007629
H   6.7200002670  1.4900000095  15.6800003052
H   5.5399999619  2.3800001144  16.5800018311
H   7.4900002480  1.6299999952  17.9600009918
H   7.6200003624  3.4700000286  17.8300018311
H   9.3500003815  3.0200002193  16.3300018311
H   8.8100004196  1.5400002003  16.1000022888
N   16.9300003052  6.2500000000  3.8200001717
C   16.4500007629  5.9900002480  5.1900005341
C   17.5600013733  5.7600002289  6.1300001144
N   18.3800010681  6.9400000572  6.4000005722
H   17.7300014496  6.8800001144  3.8700003624
H   17.2800006866  5.4000000954  3.3700001240
H   15.8000001907  5.1200003624  5.1200003624
H   15.8800010681  6.8600006104  5.5399999619
H   18.1400012970  4.9100003242  5.7399997711
H   17.2200012207  5.4600000381  7.1300005913
H   19.2900009155  6.7100000381  6.8100004196
H   17.9800014496  7.5700001717  7.0900006294
N   4.1300001144  10.3400001526  17.3700008392
C   4.8600001335  9.9800004959  18.6000022888
C   4.1599998474  10.6600008011  0.4400000274
N   4.5500001907  12.0800008774  0.4100000262
H   4.3400001526  11.3299999237  17.2299995422
H   3.1300001144  10.3800010681  17.5500011444
H   5.8299999237  10.4600000381  18.4400005341
H   4.9500002861  8.8900003433  18.6300010681
H   4.5400004387  10.3400001526  1.4100000858
H   3.0700001717  10.6200008392  0.3200000226
H   4.1599998474  12.4600009918  18.9400005341
H   5.5500001907  12.1600008011  0.2300000191
N   2.7300000191  5.3400001526  9.8400001526
C   3.1100001335  6.5400004387  10.6400003433
C   4.6300001144  6.5600004196  10.8699998856
N   5.0300002098  7.8100004196  11.6000003815
H   2.6300001144  4.5100002289  10.4200000763
H   3.4900000095  5.1200003624  9.1900005341
H   2.5399999619  6.5000004768  11.5800008774
H   2.8100001812  7.4600005150  10.1100006104
H   5.2799997330  6.5000004768  9.9900007248
H   4.8600001335  5.7000007629  11.5200004578
H   4.5200004578  7.7100000381  12.4700012207
H   4.7200002670  8.6900005341  11.1800003052
N   0.6500000358  12.0100011826  8.3100004196
C   19.3900012970  11.5299997330  9.5500001907
C   17.8700008392  11.4700012207  9.5600004196
N   17.4700012207  10.4300012589  8.5100002289
H   0.2900000215  12.9400005341  8.0799999237
H   0.2300000191  11.4500007629  7.5700001717
H   0.2700000107  12.2000007629  10.3600006104
H   0.4500000179  10.6000003815  9.9100008011
H   17.5000019073  12.4499998093  9.2399997711
H   17.3900012970  11.1800003052  10.5000009537
H   18.2600002289  9.7899999619  8.4900007248
H   17.5400009155  10.8699998856  7.5900006294
N   15.2800006866  19.1300010681  3.0700001717
C   16.2200012207  0.7800000310  2.6100001335
C   17.5200004578  0.9500000477  3.5000002384
N   18.3800010681  19.1200008392  3.5000002384
H   14.9400005341  0.0700000003  3.9700002670
H   15.8400011063  18.3200016022  3.3299999237
H   15.8000001907  1.7799999714  2.4700000286
H   16.7100009918  0.5199999809  1.6700000763
H   17.2900009155  1.2800000906  4.5100002289
H   18.2000007629  1.6700000763  3.0299999714
H   18.4200019836  18.7000007629  2.5699999332
H   17.8100013733  18.3800010681  3.9200000763
N   9.3800001144  12.3299999237  9.5000000000
C   8.3000001907  12.0400009155  8.5900001526
C   8.7200002670  11.1400012970  7.3900003433
N   9.7200002670  11.7700004578  6.5000004768
H   9.7800006866  11.4300003052  9.7600002289
H   10.1400003433  12.7200012207  8.9300003052
H   7.9600005150  13.0500011444  8.3199996948
H   7.5300002098  11.5900001526  9.2300004959
H   7.8100004196  10.8500003815  6.8500003815
H   9.1900005341  10.1599998474  7.5500006676
H   9.8200006485  12.7800006866  6.6200008392
H   9.6500005722  11.5400009155  5.5100002289
N   14.0500011444  2.8600001335  9.2300004959
C   14.9700012207  3.9500000477  9.5200004578
C   14.1200008392  5.2100000381  9.2200002670
N   13.8400001526  5.3200001717  7.7500004768
H   14.2899999619  2.1000001431  9.8700008392
H   13.1400003433  3.0999999046  9.6100006104
H   15.9100008011  3.9100003242  8.9600000381
H   15.1800012589  3.9700002670  10.5900001526
H   14.6700010300  6.1100001335  9.5100002289
H   13.1700000763  5.2000002861  9.7600002289
H   12.8700008392  5.0100002289  7.6600003242
H   14.3100013733  4.5500001907  7.2600002289
N   8.8400001526  13.3699998856  0.8700000644
C   8.1300001144  14.0400009155  19.1200008392
C   9.0200004578  13.9900007248  17.8400001526
N   10.2700004578  14.7100009918  18.0000000000
H   8.1600008011  13.2100009918  1.6100001335
H   9.5000000000  14.0200004578  1.2900000811
H   7.7300004959  15.0200004578  0.0100000007
H   7.3000001907  13.3800010681  18.8200016022
H   8.5200004578  14.3400001526  16.9300003052
H   9.1700000763  12.9099998474  17.6800003052
H   10.6900005341  14.3500003815  18.8600006104
H   10.1300001144  15.7100009918  18.1300010681
N   0.4600000381  0.0700000003  6.0900001526
C   1.8700001240  18.9500007629  6.2200002670
C   2.0799999237  17.6800003052  5.4099998474
N   1.9300000668  17.8000011444  3.9700002670
H   19.1500015259  18.7900009155  6.3500003815
H   0.3700000048  0.1400000006  5.0700001717
H   2.0199999809  18.7300014496  7.2800006866
H   2.5100002289  0.3900000155  5.9200000763
H   1.3500000238  16.9600009918  5.8000001907
H   3.0700001717  17.2600002289  5.6300001144
H   1.0700000525  18.2800006866  3.6700000763
H   2.5900001526  18.4900016785  3.6000001431
N   10.5900001526  4.3000001907  7.8700008392
C   9.4300003052  3.6400003433  7.3800001144
C   8.2900009155  4.6900000572  7.4500007629
N   7.9099998474  5.1500005722  8.7800006866
H   11.4600000381  3.8300001621  7.6100006104
H   10.6300010681  4.2300000191  8.8800010681
H   9.2800006866  2.7000000477  7.9200005531
H   9.5800008774  3.4300003052  6.3100004196
H   7.4200005531  4.2800002098  6.9300003052
H   8.7000007629  5.4800004959  6.8200006485
H   7.3800001144  6.0100002289  8.6600008011
H   8.7200002670  5.5000000000  9.2899999619
N   2.5900001526  18.7500019073  18.7200012207
C   3.3400001526  0.1800000072  17.6800003052
C   2.4000000954  0.6000000238  16.5699996948
N   1.8900001049  18.8300018311  15.7400016785
H   1.9800001383  18.0600013733  18.2800006866
H   1.9800001383  19.3500003815  19.2800006866
H   4.0600004196  18.8400001526  17.3100013733
H   3.8600001335  0.9600000381  18.2600002289
H   2.8800001144  1.2599999905  15.8300008774
H   1.5600000620  1.1900000572  16.9600009918
H   1.2300000191  18.2400016785  16.2299995422
H   2.6000001431  18.1200008392  15.5600013733
N   3.5000002384  10.7700004578  8.6100006104
C   4.6199998856  11.7600002289  8.2600002289
C   4.4900002480  13.1000003815  9.0100002289
N   3.2000002861  13.7400007248  8.8800010681
H   2.6399998665  11.3100004196  8.4800004959
H   3.4000000954  10.1800003052  7.7900004387
H   4.6700000763  11.9000005722  7.1700000763
H   5.5100002289  11.2100009918  8.6100006104
H   5.2400007248  13.7800006866  8.5799999237
H   4.6800003052  12.9899997711  10.0799999237
H   2.5100002289  13.0800008774  9.2100009918
H   2.9100000858  13.8400001526  7.9099998474
N   8.8000001907  18.8300018311  2.2999999523
C   9.2700004578  0.6700000167  1.6500000954
C   10.3299999237  1.3999999762  2.4200000763
N   9.8100004196  1.9500000477  3.7300002575
H   8.6500005722  18.9000015259  3.3000001907
H   9.6300010681  18.2600002289  2.4100000858
H   8.4099998474  1.3400000334  1.5700000525
H   9.6400003433  0.4500000179  0.6500000358
H   10.6400003433  2.1900000572  1.7400001287
H   11.0699996948  0.6100000143  2.6300001144
H   9.2500009537  2.7699999809  3.5100002289
H   10.6400003433  2.3700001240  4.1599998474
N   3.7500002384  4.8100004196  15.6100006104
C   3.1600000858  4.3400001526  14.3300008774
C   1.6500000954  4.3000001907  14.4900016785
N   1.0700000525  5.6200003624  14.8200016022
H   3.6300001144  5.8200001717  15.6100006104
H   4.7500000000  4.7400002480  15.4300012589
H   3.4200000763  3.2900002003  14.1599998474
H   3.4600000381  4.9300003052  13.4500007629
H   1.3100001812  3.6500000954  15.3000011444
H   1.2200000286  3.9400002956  13.5500001907
H   1.3400000334  5.8200001717  15.7800006866
H   0.0500000045  5.6100006104  14.8500003815
N   14.1800012589  13.2900009155  8.5399999619
C   14.9500007629  14.5000000000  8.2400007248
C   15.6800003052  15.1000013351  9.5100002289
N   14.7300004959  15.5900001526  10.5300006866
H   13.4900007248  13.1200008392  7.8100004196
H   13.6000003815  13.6000003815  9.3200006485
H   14.2300014496  15.2600002289  7.9300003052
H   15.7200002670  14.1800012589  7.5300002098
H   16.2900009155  15.9700012207  9.2300004959
H   16.3900012970  14.4400014877  10.0100002289
H   14.1700000763  14.8299999237  10.9200000763
H   14.0000009537  16.1400012970  10.0700006485
N   1.0200001001  14.8000001907  15.8500003815
C   0.7400000095  13.5400009155  16.5800018311
C   1.7200000286  13.3600006104  17.7300014496
N   3.0600001812  12.9500007629  17.1400012970
H   0.4300000072  14.8900012970  15.0200004578
H   1.9900001287  14.8800001144  15.5500011444
H   0.8899999857  12.7400007248  15.8500003815
H   19.0900001526  13.7500009537  16.8400020599
H   1.5100001097  12.5500011444  18.4400005341
H   1.8800001144  14.2899999619  18.3100013733
H   3.4400000572  13.6300001144  16.5000000000
H   2.7300000191  12.2200002670  16.5000000000
N   19.3800010681  17.0600013733  17.4099998474
C   19.0699996948  17.1300010681  18.8500003815
C   18.1000003815  15.9300003052  19.2200012207
N   16.8199996948  15.7900009155  18.5100002289
H   18.5200004578  17.2800006866  16.9100017548
H   0.2400000095  16.1000022888  17.1900005341
H   18.6800003052  18.1500015259  18.9500007629
H   0.6000000238  16.9300003052  0.0000000000
H   17.7700004578  16.0900001526  0.8600000143
H   18.6800003052  15.0000009537  19.1200008392
H   17.0900001526  15.9300003052  17.5300006866
H   16.2200012207  16.6000003815  18.6800003052
N   18.9400005341  5.5000000000  10.5900001526
C   17.8400001526  6.4600000381  10.5500011444
C   18.4799995422  7.8900003433  10.7200002670
N   19.0699996948  8.1300001144  12.0100011826
H   19.3300018311  5.3800005913  11.5200004578
H   0.3600000143  5.7399997711  10.0400009155
H   17.1100006104  6.2200002670  11.3400001526
H   17.2500000000  6.3900003433  9.6200008392
H   17.6400012970  8.5799999237  10.5900001526
H   19.2500000000  8.0399999619  9.9500007629
H   18.4200019836  7.7900004387  12.7299995422
H   0.4300000072  7.4600005150  12.1400012970
N   17.0799999237  9.3500003815  19.3400020599
C   16.0700016022  8.3900003433  0.5000000000
C   15.1400003433  7.9700002670  18.7700004578
N   15.9100008011  7.3099999428  17.5800018311
H   17.5000019073  9.8200006485  0.7400000095
H   16.4500007629  10.0300006866  18.9400005341
H   15.5200004578  8.9000005722  1.3000000715
H   16.6600017548  7.6100006104  0.9900000691
H   14.5500001907  8.8299999237  18.4799995422
H   14.3700008392  7.2600002289  19.1100006104
H   16.2000007629  6.4000005722  17.9400005341
H   16.7700004578  7.8500003815  17.5500011444
N   1.9300000668  19.2200012207  10.0900001526
C   1.9600000381  0.2400000095  11.4700012207
C   3.1900000572  1.2200000286  11.6900005341
N   3.0500001907  2.3600001335  10.7200002670
H   2.5100002289  18.3800010681  10.0200004578
H   2.2700002193  0.4900000095  9.4100008011
H   2.1400001049  18.7600002289  12.1000003815
H   0.9800000191  0.7300000787  11.5600004196
H   4.1800003052  0.7400000095  11.6900005341
H   3.0400002003  1.6100001335  12.7000007629
H   2.0500001907  2.5800001621  10.6800003052
H   3.2000002861  1.9800001383  9.7899999619
N   18.0800018311  10.7100009918  16.7200012207
C   17.8899993896  9.9300003052  15.4899997711
C   17.1900005341  10.7899999619  14.3500003815
N   15.9200010300  11.2900009155  14.9000015259
H   17.4000015259  11.4700012207  16.6800003052
H   17.7700004578  10.1700010300  17.5300006866
H   17.2200012207  9.0800008774  15.6700000763
H   18.8600006104  9.6800003052  15.0600004196
H   16.9800014496  10.1200008392  13.5000000000
H   17.8300018311  11.6100006104  14.0100002289
H   15.4400005341  11.7899999619  14.1500005722
H   15.2300014496  10.5399999619  14.9700012207
N   11.5500011444  13.9800014496  14.8299999237
C   10.7500000000  13.8900003433  13.6300001144
C   11.5299997330  13.2700004578  12.4400005341
N   12.5900001526  14.1800012589  11.9700002670
H   12.3100004196  14.6400012970  14.7500000000
H   10.9900007248  14.2399997711  15.6400012970
H   10.3100004196  14.8200016022  13.2700004578
H   9.8800001144  13.2400016785  13.7600002289
H   10.7800006866  13.0500011444  11.6700000763
H   12.0100011826  12.3299999237  12.7500009537
H   13.1000003815  14.5100011826  12.7800006866
H   12.2800006866  15.0000009537  11.4500007629
N   5.7700004578  18.7800006866  2.8400001526
C   5.1200003624  17.5800018311  2.1100001335
C   5.3600001335  17.6000003815  0.5500000119
N   6.7800002098  17.4799995422  0.2300000191
H   5.9400005341  18.5500011444  3.8200001717
H   6.7300004959  18.8100013733  2.5000000000
H   4.0300002098  17.5800018311  2.2900002003
H   5.5100002289  16.6500015259  2.5199999809
H   5.0900001526  18.6400012970  0.3000000119
H   4.8299999237  16.8100013733  0.0100000007
H   7.1700000763  16.6000003815  0.5600000024
H   7.4000000954  18.2100009918  0.5600000024
N   15.1700010300  18.7400016785  18.7200012207
C   13.8299999237  18.0900020599  18.4300003052
C   12.7200012207  18.5600013733  19.3900012970
N   12.9600000381  18.2600002289  1.3600001335
H   15.0700006485  0.3499999940  18.7800006866
H   15.4800014496  18.5000019073  0.2599999905
H   13.9500007629  17.0000000000  18.4700012207
H   13.4600009918  18.4600009918  17.4700012207
H   11.8100013733  17.9900016785  19.1500015259
H   12.4700012207  0.2100000083  19.2000007629
H   13.7900009155  18.7500019073  1.7100000381
H   13.2300004959  17.2800006866  1.3999999762
N   3.3100004196  10.2500009537  11.9100008011
C   2.7900002003  10.8699998856  13.1400003433
C   2.2100000381  9.7899999619  14.0500011444
N   3.2800002098  9.0000000000  14.6400012970
H   3.6000001431  10.9800004959  11.2600002289
H   2.6300001144  9.6599998474  11.4400005341
H   2.0500001907  11.6300010681  12.8800010681
H   3.6000001431  11.4099998474  13.6600008011
H   1.5400002003  9.0600004196  13.5799999237
H   1.7900000811  10.2700004578  14.9500007629
H   2.8100001812  8.4600000381  15.3600006104
H   3.9500000477  9.5900001526  15.1500015259
N   7.8800005913  4.0500001907  12.1400012970
C   7.2200007439  2.7500000000  12.3700008392
C   7.4200005531  1.7900000811  11.1800003052
N   6.7000002861  2.2100000381  9.9000005722
H   7.5000004768  4.7300000191  12.8000011444
H   7.6300001144  4.3600001335  11.1999998093
H   6.1300001144  2.8400001526  12.5100002289
H   7.5200004578  2.3200001717  13.3300008774
H   7.0100002289  0.8100000024  11.4600000381
H   8.4900007248  1.6700000763  10.9600009918
H   7.1300005913  3.0299999714  9.4800004959
H   5.7300000191  2.4800000191  10.0700006485
N   19.0000000000  6.6500000954  19.0400009155
C   0.1100000069  6.9000005722  17.6900005341
C   1.2000000477  8.0000000000  17.5900001526
N   0.8899999857  9.3200006485  18.2000007629
H   18.7700004578  7.6100006104  19.2900009155
H   0.3400000334  6.3100004196  0.2500000000
H   18.6900005341  7.1199998856  17.0000000000
H   0.5199999809  5.9700002670  17.2800006866
H   1.3900001049  8.0100002289  16.5100002289
H   2.0799999237  7.5700001717  18.0800018311
H   0.4400000274  9.2500009537  19.1100006104
H   0.0900000036  9.7400007248  17.7200012207
N   10.5000009537  7.1199998856  12.3299999237
C   10.3800010681  7.4700002670  10.9000005722
C   9.4600000381  8.6600008011  10.6100006104
N   10.0700006485  9.8700008392  11.0600004196
H   11.1300001144  7.8900003433  12.5799999237
H   9.6500005722  7.3700003624  12.8400001526
H   9.8600006104  6.6200008392  10.4300012589
H   11.3299999237  7.4800004959  10.3400001526
H   8.4600000381  8.5300006866  11.0600004196
H   9.2500009537  8.7100009918  9.5400009155
H   11.0000000000  10.1200008392  10.7300004959
H   10.2600002289  9.6800003052  12.0500001907
N   2.4500000477  8.5500001907  5.8900003433
C   2.7500000000  7.6300001144  6.9800000191
C   4.2000002861  7.0100002289  6.9400000572
N   5.3200001717  7.9200005531  7.2700004578
H   2.5399999619  8.0100002289  5.0399999619
H   3.2300000191  9.1900005341  5.8400006294
H   2.0799999237  6.7600007057  6.9300003052
H   2.6000001431  8.1500005722  7.9300003052
H   4.3900003433  6.6300005913  5.9300003052
H   4.2800002098  6.1900000572  7.6600003242
H   5.3699998856  8.1500005722  8.2600002289
H   5.2100000381  8.7399997711  6.6800003052
N   19.1399993896  9.9900007248  5.8800001144
C   18.9800014496  10.9500007629  4.8700003624
C   19.1800003052  10.2500009537  3.4800002575
N   18.0500011444  9.4700002670  3.0100002289
H   0.7100000381  9.6800003052  5.7900004387
H   18.5600013733  9.1700000763  5.6900000572
H   0.2500000000  11.8200006485  4.9700002670
H   17.9500007629  11.2900009155  4.9900002480
H   0.6999999881  9.6599998474  3.4800002575
H   19.3300018311  10.8800010681  2.5900001526
H   17.2100009918  10.0300006866  3.0800004005
H   17.9300003052  8.7700004578  3.7400002480
N   3.6900000572  16.7700004578  9.4400005341
C   4.5999999046  16.8300018311  10.6600008011
C   4.0399999619  16.2900009155  11.9899997711
N   3.7600002289  14.9000015259  11.9800004959
H   4.0800004005  17.1700019836  8.5900001526
H   3.5399999619  15.7800006866  9.2300004959
H   4.9600000381  17.8600006104  10.7500000000
H   5.4800004959  16.2200012207  10.4000005722
H   3.1800003052  16.9300003052  12.2200002670
H   4.8400001526  16.4000015259  12.7299995422
H   4.6700000763  14.4800004959  11.8000011444
H   3.3700001240  14.6800003052  11.0699996948
N   14.8800001144  1.1200000048  11.4500007629
C   13.8600006104  0.0500000045  11.3900003433
C   13.5500001907  18.8000011444  12.7600002289
N   14.7700014114  18.4700012207  13.5600004196
H   15.7900009155  0.6500000358  11.5100002289
H   14.7300004959  1.7400001287  12.2400007248
H   14.3400001526  18.6200008392  10.8400011063
H   12.9200000763  0.4700000286  11.0100002289
H   12.9500007629  17.8899993896  12.6100006104
H   12.9700002670  0.0900000036  13.3900012970
H   15.4600009918  19.2100009918  13.4000005722
H   15.1599998474  17.6599998474  13.0800008774
N   10.4400005341  10.2299995422  16.9000015259
C   11.8600006104  10.3100004196  16.4000015259
C   12.0100011826  10.3100004196  14.8600006104
N   12.1800003052  9.0700006485  14.1800012589
H   9.8800001144  10.6900005341  16.1800003052
H   10.3700008392  10.8800010681  17.6800003052
H   12.5100002289  9.4700002670  16.6700000763
H   12.4400005341  11.0900011063  16.8900012970
H   12.9800014496  10.7899999619  14.7100009918
H   11.1400012970  10.9100008011  14.5500001907
H   11.7200002670  8.4099998474  14.8100004196
H   13.1700000763  8.8400001526  14.2200002670
N   2.6100001335  2.2600002289  7.7600002289
C   3.6000001431  3.0299999714  6.8500003815
C   2.8300001621  4.0500001907  6.0400004387
N   1.9100000858  3.4400000572  5.1200003624
H   1.9200000763  1.7699999809  7.1900005341
H   2.0600001812  2.7999999523  8.4300003052
H   4.1000003815  2.3500001431  6.1500000954
H   4.3699998856  3.5599999428  7.4100008011
H   3.4300003052  4.8000001907  5.5200004578
H   2.2000000477  4.6100001335  6.7500000000
H   1.0399999619  3.1200001240  5.5500001907
H   2.3600001335  2.6800000668  4.6100001335
N   15.3100004196  4.2600002289  17.6900005341
C   14.0600004196  3.6300001144  17.4000015259
C   13.5799999237  3.8400001526  15.9400005341
N   13.3900012970  5.3200001717  15.5100011826
H   15.1900005341  5.2699999809  17.6700000763
H   15.6800003052  3.9900002480  18.6000022888
H   13.2800006866  4.0199999809  18.0600013733
H   14.1599998474  2.5500001907  17.5700016022
H   12.6300001144  3.3000001907  15.8199996948
H   14.2600011826  3.5399999619  15.1300010681
H   14.2300014496  5.8600001335  15.6700000763
H   12.6700010300  5.6900000572  16.1200008392
N   2.7000000477  14.8100004196  4.6800003052
C   1.9100000858  13.8000011444  3.9400002956
C   1.5400002003  14.2899999619  2.5300002098
N   0.7500000000  15.5399999619  2.5100002289
H   3.3800003529  15.1599998474  4.0100002289
H   2.1900000572  15.6900014877  4.7400002480
H   0.9200000763  13.7000007629  4.4100003242
H   2.4200000763  12.8300008774  3.8900003433
H   1.0600000620  13.5000000000  1.9400000572
H   2.4900002480  14.4500007629  2.0000000000
H   1.3999999762  16.2700004578  2.8100001812
H   19.3700008392  15.4300012589  3.1700000763
N   13.9700012207  15.0100002289  0.6800000668
C   13.6100006104  13.6100006104  0.6800000668
C   13.9700012207  12.7600002289  18.8100013733
N   15.3800010681  12.6800003052  18.5500011444
H   14.9700012207  15.1300010681  0.5199999809
H   13.4600009918  15.4300012589  19.3000011444
H   12.5300006866  13.5900011063  0.8700000644
H   14.1400003433  13.1900005341  1.5499999523
H   13.4900007248  13.2800006866  17.9600009918
H   13.5600004196  11.7500009537  18.9099998474
H   15.8300008774  13.5799999237  18.6800003052
H   15.4700002670  12.6300001144  17.5400009155
N   12.7500009537  2.2200002670  6.7100000381
C   12.8900003433  1.2200000286  5.6100006104
C   13.8400001526  0.0200000014  6.0300006866
N   15.2200012207  0.4300000072  6.1900000572
H   13.6600008011  2.5800001621  6.9900007248
H   12.3700008392  1.8400001526  7.5799999237
H   13.2900009155  1.6100001335  4.6600003242
H   11.9300003052  0.7500000000  5.4000000954
H   13.9099998474  18.5799999237  5.3300004005
H   13.3800010681  19.0900001526  6.9700002670
H   15.7900009155  19.0900001526  6.6100001335
H   15.2300014496  1.1499999762  6.9100003242
N   7.8300004005  19.1800003052  5.1600003242
C   7.2100000381  0.1600000113  6.4700002670
C   5.8400006294  18.9899997711  6.6500000954
N   5.9500002861  17.6200008392  7.0300002098
H   7.2300004959  0.2200000137  4.4600000381
H   8.7300004959  0.2700000107  5.0900001526
H   7.1300005913  1.2500000000  6.5000004768
H   7.9000000954  19.2500000000  7.2700004578
H   5.2400007248  19.0699996948  5.7399997711
H   5.4099998474  0.1700000167  7.4800004959
H   6.5100002289  17.5500011444  7.8800005913
H   6.5000004768  17.0500011444  6.3800001144
N   7.0000004768  13.4400005341  12.3400011063
C   6.4400005341  12.4200010300  13.2300004959
C   6.9300003052  10.9700002670  12.9099998474
N   8.4099998474  10.7399997711  13.2100009918
H   6.8600006104  13.1200008392  11.3800001144
H   8.0000000000  13.5799999237  12.3299999237
H   5.3500003815  12.4400005341  13.2000007629
H   6.6100001335  12.5600004196  14.3100013733
H   6.8800001144  10.9300003052  11.8100013733
H   6.2300004959  10.3100004196  13.4100008011
H   8.8500003815  11.5800008774  12.8300008774
H   8.7200002670  10.0500001907  12.5300006866
N   0.0300000012  15.4899997711  9.3500003815
C   19.3199996948  15.1200008392  10.7300004959
C   0.3100000024  16.3700008392  11.5600004196
N   18.6800003052  17.4500007629  11.4400005341
H   18.9400005341  16.3800010681  9.2300004959
H   1.0000000000  15.6400012970  9.0900001526
H   0.5500000119  14.2899999619  11.0900011063
H   18.2900009155  14.8100004196  10.9500007629
H   1.2900000811  16.7500000000  11.2300004959
H   0.2300000191  16.1800003052  12.6300001144
H   17.8600006104  16.8500003815  11.3299999237
H   18.7500019073  18.0000000000  10.5900001526
N   13.2600011826  8.2700004578  7.2800006866
C   11.7700004578  8.4200010300  7.2300004959
C   11.1300001144  7.7300004959  6.0200004578
N   11.2800006866  6.3100004196  5.9900002480
H   13.5600004196  8.8800010681  8.0399999619
H   13.5600004196  7.3300004005  7.5600004196
H   11.5200004578  9.4900007248  7.1900005341
H   11.2900009155  8.2100000381  8.2000007629
H   11.6700000763  8.0100002289  5.1100006104
H   10.0500001907  7.9099998474  5.9200000763
H   10.9200000763  5.8800001144  6.8400001526
H   12.2900009155  6.1200003624  5.9400005341
N   10.3800010681  3.1300001144  13.6900005341
C   11.3200006485  2.4400000572  12.9000005722
C   12.1100006104  3.4000000954  11.9200000763
N   11.1900005341  4.1599998474  10.9700002670
H   9.6500005722  3.5700001717  13.1200008392
H   10.8500003815  3.8700003624  14.2100009918
H   10.7399997711  1.7600001097  12.2700014114
H   12.0000000000  2.0500001907  13.6600008011
H   12.7900009155  2.7400002480  11.3700008392
H   12.7500009537  4.1000003815  12.4600009918
H   11.0799999237  5.0600004196  11.4300003052
H   10.2799997330  3.6800003052  10.9500007629
N   14.8400011063  7.5000004768  14.5300006866
C   15.8900012970  7.1000003815  13.6100006104
C   16.5200004578  5.7399997711  13.9300003052
N   17.1800003052  5.5700006485  15.2400007248
H   14.2399997711  6.6800003052  14.5699996948
H   15.2700004578  7.5500006676  15.4500007629
H   16.6800003052  7.8600001335  13.5700016022
H   15.4700002670  7.0200004578  12.6000013351
H   17.2900009155  5.4500002861  13.2100009918
H   15.6900014877  5.0399999619  13.7800006866
H   16.9200000763  6.3000006676  15.8900012970
H   16.9100017548  4.7100000381  15.7200002670
N   17.9300003052  3.9800002575  0.4200000167
C   18.2200012207  2.6800000668  19.2800006866
C   0.3499999940  2.4700000286  18.9899997711
N   1.1200000048  2.4500000477  0.7700001001
H   18.3900012970  4.7400002480  19.3199996948
H   18.5500011444  4.0100002289  1.2400000095
H   17.7300014496  2.6000001431  18.3000011444
H   17.7500000000  1.8900001049  0.4800000191
H   0.7100000381  3.2700002193  18.3500003815
H   0.4600000381  1.5100001097  18.4700012207
H   0.5700000525  2.0199999809  1.5100001097
H   1.2900000811  3.4200000763  1.0300000906
N   10.9700002670  10.5500011444  3.7800002098
C   10.8600006104  9.4400005341  2.7500000000
C   10.2200012207  9.8100004196  1.3500000238
N   8.8500003815  10.1800003052  1.7100000381
H   11.2600002289  11.3200006485  3.1800003052
H   11.8000011444  10.4000005722  4.3600001335
H   10.3900003433  8.5600004196  3.1900000572
H   11.9100008011  9.2800006866  2.4700000286
H   10.2400007248  8.9900007248  0.6200000048
H   10.8100013733  10.6400003433  0.9700000286
H   8.9099998474  10.6300010681  2.6300001144
H   8.5500001907  10.9000005722  1.0500000715
N   17.7100009918  19.3900012970  13.3900012970
C   18.2800006866  1.3300000429  13.6400012970
C   17.9400005341  1.9300000668  15.0200004578
N   16.5800018311  2.4800000191  15.0200004578
H   17.8300018311  18.7600002289  14.1900005341
H   18.1700000763  18.8800010681  12.6400003433
H   17.9300003052  2.0000000000  12.8500003815
H   19.3700008392  1.2200000286  13.5600004196
H   18.7500019073  2.6300001144  15.2800006866
H   18.0600013733  1.1400001049  15.7700004578
H   16.2200012207  2.6900002956  15.9500007629
H   15.8500003815  1.8500000238  14.7000007629
N   18.8000011444  2.8500003815  8.9800004959
C   18.1500015259  2.0199999809  10.0100002289
C   17.6500015259  0.6500000358  9.4500007629
N   18.7300014496  19.3100013733  8.9200000763
H   19.0200004578  3.7899999619  9.2899999619
H   18.2600002289  2.7400002480  8.1200008392
H   17.3400001526  2.6500000954  10.4000005722
H   18.8600006104  1.9100000858  10.8300008774
H   16.9200000763  0.7900000215  8.6400003433
H   17.2700004578  19.3300018311  10.1900005341
H   0.1000000089  19.2500000000  9.5800008774
H   19.1800003052  0.4900000095  8.2100000381
N   7.4900002480  12.2400007248  3.7400002480
C   6.1100001335  11.8900003433  3.1500003338
C   5.1700000763  11.3900003433  4.3400001526
N   5.7399997711  10.2200012207  4.9600000381
H   7.3200006485  13.1900005341  4.0600004196
H   7.6800003052  11.7399997711  4.5999999046
H   6.2200002670  11.1200008392  2.3800001144
H   5.6600003242  12.7800006866  2.7000000477
H   4.1599998474  11.1400012970  3.9900002480
H   5.1200003624  12.1500005722  5.1399998665
H   6.7500000000  10.3000011444  5.0399999619
H   5.6500000954  9.5400009155  4.2100005150
N   1.7000000477  5.4099998474  2.0799999237
C   1.6200000048  6.8300004005  2.5300002098
C   2.9000000954  7.6800003052  2.1100001335
N   4.1700000763  7.4100008011  2.9200003147
H   1.8300001621  4.8000001907  2.8900001049
H   2.4900002480  5.3400001526  1.4400000572
H   1.1600000858  6.9000005722  3.5200002193
H   0.7600000501  7.2700004578  2.0199999809
H   2.6200003624  8.7200002670  2.3200001717
H   3.0400002003  7.5900006294  1.0200001001
H   4.9700002670  7.7200002670  2.3700001240
H   4.3000001907  6.4100003242  3.0600001812
N   14.4700002670  4.0300002098  1.8500000238
C   13.1600008011  4.7200002670  1.9800001383
C   13.2600011826  5.8800001144  3.0000000000
N   14.1900005341  6.9400000572  2.5800001621
H   14.9800004959  4.0000000000  2.7300000191
H   15.0400009155  4.6800003052  1.3199999332
H   12.3900012970  3.9800002575  2.2400000095
H   12.8600006104  5.1000003815  1.0000000000
H   13.5000000000  5.4900002480  4.0000000000
H   12.3100004196  6.4300003052  3.0200002193
H   15.1400003433  6.6500000954  2.8100001812
H   14.0400009155  7.6200003624  3.3200001717
N   12.9400005341  11.8800010681  6.2899999619
C   13.9500007629  12.0100011826  5.2600002289
C   14.9100008011  10.7800006866  5.3400001526
N   14.3100013733  9.4300003052  4.8700003624
H   12.2300004959  11.1600008011  6.1300001144
H   13.3900012970  11.7200002670  7.1900005341
H   14.5500001907  12.8900003433  5.5399999619
H   13.6300001144  12.0900011063  4.2200002670
H   15.3100004196  10.7500000000  6.3600006104
H   15.7800006866  10.9000005722  4.6800003052
H   15.0100002289  8.7200002670  5.1000003815
H   13.5100002289  9.1999998093  5.4500002861
N   7.0400004387  7.1100001335  2.0199999809
C   7.6600003242  7.2800006866  3.3400001526
C   7.7699999809  5.9300003052  4.0900001526
N   8.8800010681  5.1000003815  3.6600003242
H   7.4100008011  6.2700004578  1.5900001526
H   7.2400002480  7.8600001335  1.3600001335
H   6.9900007248  7.9500002861  3.8900003433
H   8.6500005722  7.7400007248  3.2100000381
H   6.8700003624  5.3699998856  3.8300001621
H   8.0300006866  6.1500000954  5.1399998665
H   9.6800003052  5.2900004387  4.2600002289
H   9.2300004959  5.4500002861  2.7699999809
N   8.7200002670  8.0200004578  18.5000019073
C   9.4600000381  6.7800002098  18.6100006104
C   11.0000000000  6.7600007057  18.3700008392
N   11.2600002289  7.0200004578  16.9200000763
H   8.8500003815  8.6300001144  19.3000011444
H   9.0600004196  8.5600004196  17.7000007629
H   9.0700006485  6.1100001335  17.8400001526
H   9.2300004959  6.2700004578  0.1500000060
H   11.4000015259  5.7700004578  18.6000022888
H   11.4200010300  7.6100006104  18.9200000763
H   11.0699996948  8.0000000000  16.7000007629
H   10.5700006485  6.5600004196  16.3300018311
N   9.6000003815  15.9400005341  5.0700001717
C   11.0799999237  15.9900007248  4.8200001717
C   11.9000005722  16.1800003052  6.1000003815
N   11.8000011444  14.9600009918  6.8400001526
H   9.1800003052  15.6600008011  4.1900005341
H   9.1800003052  16.8100013733  5.3800005913
H   11.2900009155  16.7900009155  4.1100001335
H   11.3500013351  15.0200004578  4.3900003433
H   11.5800008774  17.0400009155  6.6900005341
H   12.9700002670  16.3300018311  5.9000005722
H   12.1100006104  14.3100013733  6.1300001144
H   10.7899999619  14.7900009155  6.9000005722
N   4.5100002289  14.7800006866  15.2400007248
C   4.2400002480  16.1000022888  15.8100013733
C   5.5100002289  17.0700016022  15.6800003052
N   6.7400002480  16.7200012207  16.4300003052
H   4.3100004196  14.8400011063  14.2399997711
H   5.5100002289  14.6000003815  15.3700008392
H   4.1300001144  16.0000000000  16.9000015259
H   3.4400000572  16.5800018311  15.2400007248
H   5.3200001717  18.0500011444  16.1300010681
H   5.7600002289  17.2299995422  14.6300010681
H   7.0000004768  15.7500000000  16.2400016785
H   6.6800003052  16.8600006104  17.4400005341
N   6.4000005722  6.4200000763  17.0300006866
C   6.4700002670  7.1700000763  15.7300004959
C   7.8900003433  7.0200004578  15.0100002289
N   7.8400001526  7.6900005341  13.6600008011
H   5.4099998474  6.3200001717  17.2600002289
H   6.9100003242  6.9900007248  17.7000007629
H   6.1000003815  8.2000007629  15.8199996948
H   5.6700000763  6.6000003815  15.2400007248
H   7.9500002861  5.9400005341  14.8700008392
H   8.7600002289  7.3300004005  15.6000003815
H   7.8000001907  8.7100009918  13.6700010300
H   7.0100002289  7.5000004768  13.0900001526
N   14.2800006866  10.2900009155  9.2500009537
C   13.6499996185  10.0300006866  10.5000009537
C   14.5600013733  10.2600002289  11.7200002670
N   14.9400005341  11.7500009537  11.7700004578
H   15.2700004578  10.2000007629  9.4700002670
H   14.0500011444  11.2400007248  8.9600000381
H   13.2400016785  9.0100002289  10.4899997711
H   12.7600002289  10.6300010681  10.7000007629
H   15.4400005341  9.6100006104  11.6700000763
H   14.0500011444  10.0000000000  12.6500015259
H   14.0800008774  12.2600002289  11.9700002670
H   15.3500003815  11.9899997711  10.8600006104
N   16.9700012207  16.3200016022  15.1000013351
C   16.4800014496  14.9100008011  14.7900009155
C   14.9900007248  14.6900005341  15.0100002289
N   14.1700000763  15.5600013733  14.0200004578
H   16.1500015259  16.8400020599  15.4200000763
H   17.1400012970  16.8199996948  14.2300014496
H   17.1100006104  14.2500009537  15.3900003433
H   16.6300010681  14.6800003052  13.7300004959
H   14.6900005341  15.0100002289  16.0200004578
H   14.7000007629  13.6499996185  14.8000001907
H   14.1700000763  16.5100002289  14.3800010681
H   14.6700010300  15.5900001526  13.1300010681
N   3.8700003624  3.9800002575  0.7200000286
C   5.0399999619  3.4400000572  1.4300000668
C   4.8000001907  3.1200001240  2.9100000858
N   3.8400001526  2.0199999809  3.1800003052
H   3.0999999046  3.3200001717  0.7500000000
H   4.1100001335  4.0600004196  19.1300010681
H   5.8600001335  4.1599998474  1.2900000811
H   5.4900002480  2.5000000000  1.0800000429
H   4.5000000000  4.0300002098  3.4400000572
H   5.6900000572  2.7699999809  3.4600000381
H   4.3900003433  1.1900000572  2.9500002861
H   3.1400001049  2.0199999809  2.4500000477
N   16.4600009918  16.3100013733  2.9900002480
C   15.8600006104  15.4100017548  3.9800002575
C   16.8400020599  14.3600006104  4.5300002098
N   17.4099998474  13.5400009155  3.4700000286
H   15.6700000763  16.9200000763  2.7800002098
H   16.6700000763  15.8000001907  2.1300001144
H   15.0700006485  14.8299999237  3.4800002575
H   15.3700008392  15.9400005341  4.8000001907
H   16.4500007629  13.6800003052  5.2900004387
H   17.6200008392  15.0300006866  4.9300003052
H   17.7399997711  14.2000007629  2.7600002289
H   16.6700000763  13.0200004578  3.0100002289
N   9.8200006485  18.0699996948  16.6399993896
C   10.6300010681  18.1100006104  15.5500011444
C   9.9600009918  18.6800003052  14.3200006485
N   8.9400005341  17.8600006104  13.8000011444
H   9.2500009537  17.2200012207  16.6500015259
H   9.2100009918  18.8700008392  16.7800006866
H   10.8699998856  17.0799999237  15.2600002289
H   11.5600004196  18.5900001526  15.8800010681
H   10.7200002670  18.9600009918  13.5700016022
H   9.4800004959  0.2500000000  14.5100011826
H   8.3900003433  17.6599998474  14.6300010681
H   9.2800006866  16.9600009918  13.4800004959
