940
snapshot_id=eda_1p5m_r1_t17400ps source_time_ps=17400.000000
C   13.4900007248  17.6300010681  6.9400000572
C   14.7800006866  16.8400020599  7.1500005722
C   15.5800008774  16.7800006866  5.8400006294
O   14.7200012207  17.2700004578  4.8700003624
C   13.2900009155  17.1400012970  5.4200005531
H   13.6200008392  18.7000007629  7.1100001335
H   12.7200012207  17.3200016022  7.6500005722
H   14.5699996948  15.7700004578  7.3099999428
H   15.3900003433  17.2200012207  7.9700002670
H   15.8500003815  15.7700004578  5.5100002289
H   16.4700012207  17.4200019836  5.7800002098
H   12.9800014496  16.0900001526  5.4400005341
H   12.6200008392  17.8300018311  4.8800001144
C   11.5700006485  11.5299997330  3.1900000572
C   11.1900005341  9.9600009918  3.3400001526
C   12.5300006866  9.3000011444  3.9500000477
O   13.5300006866  10.2700004578  3.6900000572
C   12.9099998474  11.5500011444  3.9800002575
H   10.8000001907  12.1100006104  3.7100002766
H   11.6800012589  11.7200002670  2.1200001240
H   10.9100008011  9.5200004578  2.3700001240
H   10.3700008392  9.8900003433  4.0600004196
H   12.7700004578  8.3100004196  3.5500001907
H   12.5900001526  9.1000003815  5.0300002098
H   13.6100006104  12.3000001907  3.5800001621
H   12.6900005341  11.7000007629  5.0399999619
C   16.5300006866  6.8000001907  20.7800006866
C   17.1499996185  5.6100006104  0.1600000113
C   15.9900007248  5.2400007248  1.1300001144
O   15.1900005341  6.4400005341  1.3100001812
C   15.1100006104  7.0100002289  21.4500026703
H   16.5900001526  6.5400004387  19.7200012207
H   17.1800003052  7.6500005722  20.9900016785
H   18.1100006104  5.7100005150  0.6800000668
H   17.2700004578  4.8400001526  20.8500003815
H   16.2900009155  4.9800004959  2.1500000954
H   15.3800010681  4.4000000954  0.7800000310
H   14.8200016022  8.0600004196  0.0900000036
H   14.2700004578  6.5700001717  20.8899993896
C   8.5100002289  11.5299997330  14.3600006104
C   8.2200002670  12.3600006104  15.6500005722
C   9.5699996948  12.3200016022  16.4600009918
O   10.3000011444  11.2700004578  15.9700012207
C   9.5000000000  10.5399999619  14.9500007629
H   9.0000000000  12.1100006104  13.5700016022
H   7.6300001144  11.0200004578  13.9500007629
H   7.4000000954  12.0000000000  16.2800006866
H   7.9700002670  13.3600006104  15.2900009155
H   9.3500003815  12.1500005722  17.5200004578
H   10.1800003052  13.2100009918  16.2800006866
H   8.9300003052  9.7800006866  15.4800014496
H   10.2400007248  10.1000003815  14.2600011826
C   11.9800004959  4.7900004387  6.0500001907
C   11.8500003815  5.7100005150  4.8800001144
C   10.2799997330  5.9800004959  4.8000001907
O   9.7300004959  4.8200001717  5.4800004959
C   10.8100013733  3.8200001717  5.7000007629
H   11.9000005722  5.4400005341  6.9300003052
H   12.9400005341  4.2600002289  6.1300001144
H   12.2400007248  5.1700000763  4.0199999809
H   12.4600009918  6.6200008392  4.9300003052
H   9.8400001526  6.0599999428  3.8000001907
H   10.0300006866  6.8700003624  5.3699998856
H   10.8400011063  3.2400000095  4.7700004578
H   10.5000009537  3.2700002193  6.5900001526
C   0.0600000024  20.5500011444  6.4300003052
C   20.6700019836  21.4300003052  5.4300003052
C   19.2200012207  21.1199989319  5.8500003815
O   19.3000011444  20.4700012207  7.1100001335
C   20.4400024414  19.5700016022  6.9500007629
H   0.5600000024  21.0300025940  7.2700004578
H   0.8000000715  19.8900012970  5.9700002670
H   20.6900005341  21.3500003815  4.3300004005
H   20.8100013733  0.9400000572  5.9200000763
H   18.6300010681  20.5000019073  5.1700000763
H   18.6500015259  0.5800000429  6.0599999428
H   20.2400016785  18.7500019073  6.2500000000
H   20.8700008392  19.2300014496  7.9099998474
C   2.6000001431  4.7800002098  15.9400005341
C   2.1100001335  3.7899999619  14.9000015259
C   1.8400001526  2.5300002098  15.7300004959
O   2.4600000381  2.8100001812  17.0100002289
C   2.1300001144  4.1300001144  17.2100009918
H   2.1700000763  5.7600002289  15.7200002670
H   3.6900000572  4.9000000954  16.0100002289
H   2.7999999523  3.4800002575  14.1000003815
H   1.1900000572  4.0600004196  14.3600006104
H   2.1500000954  1.5700000525  15.2900009155
H   0.7600000501  2.4400000572  15.9000005722
H   2.6200003624  4.5700001717  18.0900020599
H   1.0700000525  4.3100004196  17.4500007629
C   21.2300014496  16.7700004578  3.3700001240
C   19.9800014496  17.5400009155  3.3600001335
C   19.1700000763  16.8000011444  4.4100003242
O   20.1200008392  16.3600006104  5.4000000954
C   21.4000015259  16.6900005341  4.9000000954
H   0.5600000024  17.3000011444  2.8200001717
H   21.0400009155  15.7700004578  2.9700002670
H   19.5300006866  17.6900005341  2.3800001144
H   20.1800003052  18.5500011444  3.7500002384
H   18.5000019073  15.9800004959  4.1400003433
H   18.4900016785  17.4799995422  4.9300003052
H   0.6599999666  15.9100008011  5.2100000381
H   0.1000000089  17.6900005341  5.3200001717
C   2.2600002289  19.9900016785  2.3800001144
C   3.7500002384  19.8100013733  2.0000000000
C   3.7500002384  18.8400001526  0.8100000024
O   2.3700001240  18.5900001526  0.4800000191
C   1.6299999952  19.7100009918  0.9600000381
H   2.0400002003  21.0000019073  2.7300000191
H   2.0300002098  19.2000007629  3.1100001335
H   4.2600002289  19.5799999237  2.9400000572
H   4.2699999809  20.7400016785  1.7600001097
H   4.2899999619  17.8899993896  0.9100000858
H   4.1500000954  19.2700004578  21.3300018311
H   0.5600000024  19.4700012207  0.8899999857
H   1.8600000143  20.5000019073  0.2400000095
C   2.7500000000  13.2200002670  16.2200012207
C   1.4700000286  13.6700010300  15.4500007629
C   0.4100000262  13.9300003052  16.6300010681
O   1.0600000620  13.4700012207  17.8199996948
C   2.4200000763  13.8100004196  17.6400012970
H   3.6000001431  13.6900005341  15.7100009918
H   2.7999999523  12.1300010681  16.2500019073
H   1.0600000620  12.8100004196  14.9100008011
H   1.6000001431  14.4800004959  14.7300004959
H   20.9500007629  13.3400011063  16.4700012207
H   0.0300000012  14.9500007629  16.7800006866
H   2.9300000668  13.2800006866  18.4500007629
H   2.5000000000  14.8800001144  17.8400001526
C   20.3700027466  12.4900007248  5.7000007629
C   0.3700000048  12.4300003052  5.2600002289
C   0.3000000119  12.2700014114  3.6900000572
O   20.3400020599  11.8600006104  3.4900000095
C   19.5600013733  12.6100006104  4.3500003815
H   20.1400012970  13.3699998856  6.3100004196
H   20.0800018311  11.6500005722  6.3299999237
H   1.0300000906  11.7300014496  5.7900004387
H   0.8899999857  13.3699998856  5.4700002670
H   0.9800000191  11.5200004578  3.2599999905
H   0.5300000310  13.2000007629  3.1600000858
H   18.5300006866  12.2600002289  4.4700002670
H   19.6100006104  13.6900005341  4.1500000954
C   11.8700008392  3.5399999619  13.0900001526
C   13.2400016785  4.4600000381  13.0200004578
C   12.8700008392  5.6900000572  12.1199998856
O   11.4200010300  5.7100005150  12.2600002289
C   10.9300003052  4.4000000954  12.1600008011
H   11.4200010300  3.4500002861  14.0800008774
H   11.9600009918  2.5600001812  12.6200008392
H   14.0400009155  3.8300001621  12.6200008392
H   13.5400009155  4.8800001144  13.9900007248
H   13.1700000763  5.5500001907  11.0699996948
H   13.2900009155  6.6400003433  12.4600009918
H   10.9800004959  4.1400003433  11.0900011063
H   9.8900003433  4.4400005341  12.5000000000
C   18.1200008392  12.7800006866  14.2500009537
C   18.4400005341  14.1000003815  14.7500000000
C   18.6000022888  14.8700008392  13.5100002289
O   19.2600021362  14.0300006866  12.6200008392
C   18.5799999237  12.8200006485  12.7700004578
H   17.0600013733  12.5000000000  14.2899999619
H   18.5900001526  11.9899997711  14.8400011063
H   19.3700008392  14.2100009918  15.3200006485
H   17.5900001526  14.5000000000  15.3100004196
H   19.2000007629  15.7800006866  13.6600008011
H   17.6500015259  15.2300014496  13.1100006104
H   19.2800006866  12.0200004578  12.4900007248
H   17.8100013733  12.7700004578  11.9899997711
C   17.0700016022  19.4300003052  0.8899999857
C   16.3800010681  18.8300018311  2.0700001717
C   16.1100006104  20.0200004578  2.9100000858
O   15.8600006104  21.1100006104  1.9800001383
C   16.7800006866  20.9500007629  0.9300000072
H   16.7100009918  18.9400005341  21.4300003052
H   18.1700000763  19.3500003815  0.8700000644
H   16.8900012970  18.0500011444  2.6500000954
H   15.4400005341  18.4700012207  1.6500000954
H   17.0000000000  20.3500003815  3.4700000286
H   15.3100004196  19.8700008392  3.6400003433
H   17.6800003052  0.0400000028  1.2400000095
H   16.4300003052  21.3300018311  21.4099998474
C   18.6599998474  11.4900007248  20.0700016022
C   17.8199996948  11.0000000000  18.8900012970
C   18.7800006866  11.0699996948  17.6800003052
O   19.9300022125  10.5399999619  18.3000011444
C   20.0200004578  11.4099998474  19.4600009918
H   18.6300010681  10.7200002670  20.8500003815
H   18.3600006104  12.4200010300  20.5500011444
H   16.9000015259  11.5800008774  18.7500019073
H   17.5000019073  9.9700002670  19.1100006104
H   18.9600009918  12.0900011063  17.3200016022
H   18.4400005341  10.5200004578  16.7900009155
H   20.4400024414  12.3900012970  19.1800003052
H   20.7400016785  11.0300006866  20.1900005341
C   11.6200008392  17.9400005341  17.2299995422
C   10.8699998856  17.8300018311  15.8900012970
C   10.6200008392  16.2700004578  15.8400011063
O   10.8500003815  15.7600011826  17.1700019836
C   11.0900011063  16.8100013733  18.0400009155
H   11.3500013351  18.8800010681  17.7100009918
H   12.6800003052  17.7700004578  17.0000000000
H   11.3100004196  18.1800003052  14.9500007629
H   9.9000005722  18.3299999237  16.0200004578
H   11.3100004196  15.8300008774  15.1100006104
H   9.5900001526  16.0900001526  15.5300006866
H   11.6300010681  16.4400005341  18.9200000763
H   10.1400003433  17.2000007629  18.4200019836
C   10.6200008392  14.6100006104  20.9099998474
C   10.5599994659  15.9300003052  0.2100000083
C   10.8500003815  15.4899997711  1.6100001335
O   10.7399997711  14.1000003815  1.6600000858
C   10.0200004578  13.7200012207  0.5600000024
H   11.6200008392  14.3100013733  20.5900001526
H   10.0000000000  14.6000003815  20.0100021362
H   9.5900001526  16.4200000763  0.1200000048
H   11.3000001907  16.6800003052  21.3900012970
H   10.0900001526  15.8000001907  2.3300001621
H   11.8700008392  15.8600006104  1.7699999809
H   8.9900007248  14.0800008774  0.6500000358
H   10.0400009155  12.6400003433  0.3499999940
C   19.8500022888  15.1900005341  20.8400001526
C   21.3600006104  15.1800012589  0.0100000007
C   0.7400000095  15.2900009155  20.1800003052
O   21.3200016022  15.9200010300  19.2800006866
C   20.0200004578  15.3800010681  19.3400020599
H   19.2200012207  15.9500007629  21.3000011444
H   19.2800006866  14.2700004578  21.0100002289
H   0.0500000045  14.2800006866  0.6100000143
H   0.0500000045  16.0499992371  0.6599999666
H   1.1300001144  14.3000011444  19.9099998474
H   1.6299999952  15.9100008011  20.3400020599
H   20.0700016022  14.4300003052  18.7800006866
H   19.2200012207  15.9500007629  18.8700008392
C   16.7600021362  18.8200016022  15.9000005722
C   17.9700012207  18.1200008392  16.4300003052
C   18.5000019073  19.2300014496  17.3000011444
O   17.3299999237  19.7500019073  17.9200000763
C   16.2900009155  19.8700008392  16.9800014496
H   15.9200010300  18.1600017548  15.6500005722
H   16.8300018311  19.3800010681  14.9600009918
H   18.7200012207  18.0200004578  15.6500005722
H   17.7900009155  17.1900005341  16.9800014496
H   18.9400005341  20.0700016022  16.7500000000
H   19.1100006104  18.8200016022  18.1200008392
H   16.2200012207  20.8700008392  16.5400009155
H   15.3700008392  19.5700016022  17.4900016785
C   3.0400002003  3.2599999905  21.2600021362
C   3.0999999046  3.3200001717  1.3000000715
C   4.5900001526  2.9300000668  1.5400002003
O   4.7700004578  1.9400000572  0.4700000286
C   3.6000001431  1.8900001049  21.1100006104
H   3.6500000954  4.1200003624  20.9400005341
H   2.0600001812  3.4000000954  20.7900009155
H   2.2999999523  2.6399998665  1.6299999952
H   2.9900002480  4.3500003815  1.6600000858
H   4.7900004387  2.5100002289  2.5300002098
H   5.3800005913  3.6800003052  1.4100000858
H   2.9700002670  1.0399999619  21.4099998474
H   4.0900001526  1.6700000763  20.1500015259
C   18.3100013733  4.9900002480  4.9400000572
C   17.4799995422  3.8300001621  5.4800004959
C   17.8300018311  2.7600002289  4.4600000381
O   19.2600021362  2.9200003147  4.1400003433
C   19.4900016785  4.3100004196  4.2200002670
H   18.5500011444  5.6800003052  5.7600002289
H   17.5900001526  5.5000000000  4.3000001907
H   16.4000015259  3.8800001144  5.6100006104
H   17.9100017548  3.4900000095  6.4300003052
H   17.3400001526  2.8800001144  3.4900000095
H   17.6100006104  1.8000000715  4.9400000572
H   19.6500015259  4.5900001526  3.1700000763
H   20.4599990845  4.5400004387  4.6800003052
C   20.5000019073  2.4300000668  0.8500000238
C   19.2500000000  3.0100002289  0.2100000083
C   18.9000015259  1.7799999714  20.7200012207
O   19.7800006866  0.7300000787  21.0000019073
C   20.9799995422  1.3000000715  21.4099998474
H   20.2600002289  2.0700001717  1.8600000143
H   21.3000011444  3.1800003052  0.7900000215
H   19.4700012207  3.9000000954  21.0700016022
H   18.4700012207  3.2800002098  0.9400000572
H   18.9700012207  2.0300002098  19.6599998474
H   17.8500003815  1.4700000286  20.8600025177
H   0.0700000003  1.5800000429  20.4899997711
H   0.1600000113  0.5800000429  0.4900000095
C   21.2000007629  16.9900016785  12.8700008392
C   1.1300001144  17.7500000000  13.1800003052
C   1.8400001526  17.5000019073  11.8500003815
O   0.8600000143  17.8300018311  10.8400011063
C   20.9900016785  17.4700012207  11.4099998474
H   20.4700012207  17.3600006104  13.6000003815
H   21.2800006866  15.9100008011  13.0300006866
H   1.6200000048  17.3400001526  14.0700006485
H   0.9700000286  18.8200016022  13.3400011063
H   2.1400001049  16.4400005341  11.7700004578
H   2.7400002480  18.1100006104  11.6900005341
H   20.6500015259  16.6000003815  10.8300008774
H   20.4000015259  18.3800010681  11.3200006485
C   13.3600006104  1.7000000477  2.4000000954
C   14.3200006485  2.4900002480  3.2200002670
C   14.3000011444  1.9100000858  4.5900001526
O   12.9800014496  1.4500000477  4.7500000000
C   12.5500011444  0.9000000358  3.4900000095
H   13.9600000381  1.1300001144  1.6800000668
H   12.8000011444  2.4500000477  1.8200001717
H   13.9700012207  3.5300002098  3.2599999905
H   15.3300008774  2.4900002480  2.7900002003
H   14.5900011063  2.5399999619  5.4400005341
H   14.9300003052  1.0099999905  4.5000000000
H   11.4799995422  1.1300001144  3.4700000286
H   12.6500015259  21.2600021362  3.5000002384
C   15.5000009537  5.9800004959  7.7300004959
C   15.1000013351  6.1700005531  9.2100009918
C   14.2500009537  7.4500007629  9.1700000763
O   13.8900003433  7.7100000381  7.8500003815
C   15.0300006866  7.3000001907  7.0700001717
H   14.9500007629  5.1000003815  7.4000000954
H   16.5500011444  5.8200001717  7.4600005150
H   15.9600009918  6.2100005150  9.8800001144
H   14.4900016785  5.2900004387  9.4500007629
H   14.8299999237  8.3500003815  9.4200000763
H   13.3100013733  7.2600002289  9.7100009918
H   15.7500000000  8.1200008392  7.0500001907
H   14.6400012970  7.0500001907  6.0700006485
C   17.7100009918  0.0700000003  12.1500005722
C   17.9300003052  0.9900000691  11.0000000000
C   18.2600002289  2.3099999428  11.6700000763
O   17.3800010681  2.3300001621  12.8500003815
C   16.9700012207  1.0000000000  13.1900005341
H   18.6599998474  21.2400016785  12.6300001144
H   17.0900001526  20.6400012970  11.9400005341
H   17.0600013733  1.1200000048  10.3400001526
H   18.6599998474  0.7100000381  10.2400007248
H   17.9500007629  3.0900001526  10.9600009918
H   19.3000011444  2.4200000763  11.9899997711
H   15.8800010681  1.0600000620  13.0399999619
H   17.1300010681  0.7700001001  14.2500009537
C   9.1000003815  0.9400000572  1.5600000620
C   8.0700006485  1.0900000334  2.6800000668
C   8.2000007629  2.6300001144  3.0000000000
O   9.2100009918  3.1400001049  2.1000001431
C   9.1400003433  2.3300001621  0.9200000763
H   8.8000001907  0.1000000089  0.9200000763
H   10.1200008392  0.7400000095  1.9200000763
H   8.2200002670  0.5500000119  3.6200001240
H   7.0500001907  0.8700000644  2.3400001526
H   8.4800004959  2.7900002003  4.0500001907
H   7.2600002289  3.1600000858  2.7699999809
H   10.0200004578  2.4900002480  0.2900000215
H   8.2400007248  2.4800000191  0.3200000226
C   0.6400000453  7.4400000572  0.0700000003
C   0.0000000000  7.6800003052  20.0700016022
C   1.2000000477  7.4400000572  19.1399993896
O   1.8900001049  6.3500003815  19.8600006104
C   2.0199999809  6.7899999619  21.2200012207
H   0.0300000012  6.7400002480  0.6500000358
H   0.9400000572  8.3699998856  0.5600000024
H   21.0100002289  8.6500005722  19.8299999237
H   20.6599998474  6.9500007629  19.8900012970
H   1.9500000477  8.2300004959  19.2300014496
H   1.0399999619  7.2600002289  18.0699996948
H   2.8600001335  7.5000004768  21.2600021362
H   2.3099999428  5.9900002480  0.4700000286
C   18.2700004578  4.4500002861  17.0799999237
C   19.4900016785  5.2500004768  17.8000011444
C   20.2700023651  5.7300000191  16.5500011444
O   20.2900009155  4.5999999046  15.6800003052
C   19.0800018311  3.7600002289  15.8400011063
H   17.5900001526  5.2400007248  16.7399997711
H   17.7100009918  3.6800003052  17.6200008392
H   20.1100006104  4.5700001717  18.3900012970
H   19.2600021362  6.0300006866  18.5400009155
H   21.2300014496  6.1800003052  16.8400020599
H   19.6700019836  6.5700001717  16.1700019836
H   19.4900016785  2.7800002098  16.1100006104
H   18.5799999237  3.8200001717  14.8600006104
C   14.8900012970  14.5800008774  2.6200003624
C   16.0499992371  13.6300001144  3.0200002193
C   17.1599998474  13.8700008392  1.9100000858
O   16.3400001526  14.1800012589  0.8200000525
C   15.3400001526  15.0500011444  1.2300000191
H   14.6900005341  15.3400001526  3.3800003529
H   13.9800014496  13.9900007248  2.4600000381
H   15.7700004578  12.5700006485  3.0100002289
H   16.3800010681  13.7300004959  4.0600004196
H   17.7600021362  12.9899997711  1.6500000954
H   17.7500000000  14.7500000000  2.1700000763
H   14.5800008774  14.9500007629  0.4400000274
H   15.8000001907  16.0400009155  1.2100000381
C   13.8900003433  16.7500000000  12.5700006485
C   12.3400011063  16.4400005341  12.2500000000
C   11.8200006485  17.7700004578  11.6000003815
O   13.0000009537  18.5100002289  11.1700010300
C   14.2200002670  17.6400012970  11.3100004196
H   14.4900016785  15.8500003815  12.8000011444
H   13.9600000381  17.3100013733  13.5100002289
H   11.8400001526  16.1900005341  13.1900005341
H   12.3400011063  15.6100006104  11.5400009155
H   11.3000001907  18.4099998474  12.3299999237
H   11.1400012970  17.5200004578  10.7800006866
H   15.0799999237  18.3200016022  11.3900003433
H   14.3000011444  17.1200008392  10.3400001526
C   15.0200004578  3.5100002289  18.8800010681
C   13.6800003052  4.2100005150  19.4200019836
C   12.5000000000  3.5800001621  18.5799999237
O   13.1200008392  2.3900001049  17.9800014496
C   14.5400009155  2.7900002003  17.6000003815
H   15.4000005722  2.8100001812  19.6400012970
H   15.8500003815  4.1900005341  18.6500015259
H   13.7600002289  5.2699999809  19.1800003052
H   13.4800004959  4.1900005341  20.5000019073
H   12.1600008011  4.2800002098  17.8100013733
H   11.6200008392  3.2400000095  19.1500015259
H   14.5300006866  3.5200002193  16.7800006866
H   15.0900001526  1.8800001144  17.3700008392
C   2.3800001144  11.8400001526  0.4400000274
C   3.4400000572  11.5400009155  1.3999999762
C   3.9000000954  10.2000007629  0.8899999857
O   3.7000000477  10.1800003052  20.9099998474
C   2.8100001812  11.2400007248  20.5400009155
H   2.2300000191  12.9200000763  0.4700000286
H   1.4900000095  11.2300004959  0.6200000048
H   3.0700001717  11.4900007248  2.4300000668
H   4.2699999809  12.2500000000  1.3700001240
H   3.3100004196  9.3600006104  1.2699999809
H   4.9200000763  9.8500003815  1.1200000048
H   1.9300000668  10.9300003052  19.9700012207
H   3.4100003242  11.9300003052  19.9400005341
C   13.7500009537  10.1400003433  19.9000015259
C   13.3199996948  10.7399997711  21.3100013733
C   13.5900011063  12.2200002670  21.2000007629
O   13.5000000000  12.5400009155  19.7800006866
C   13.5700016022  11.4300003052  18.9600009918
H   13.2400016785  9.2300004959  19.5600013733
H   14.7800006866  9.8100004196  20.0400009155
H   13.8800001144  10.2299995422  0.6400000453
H   12.2700014114  10.5200004578  0.0700000003
H   14.6199998856  12.4200010300  0.0700000003
H   12.9400005341  12.8800010681  0.3400000334
H   14.3800010681  11.5100002289  18.2300014496
H   12.5900001526  11.4400005341  18.4600009918
C   7.5799999237  6.5500001907  14.1000003815
C   7.5399999619  7.4400000572  12.8400001526
C   6.1999998093  8.0900001526  12.8300008774
O   5.9800004959  8.3100004196  14.2300014496
C   6.2600002289  6.9900007248  14.8400011063
H   8.4300003052  6.7300004959  14.7600002289
H   7.5700001717  5.4800004959  13.8600006104
H   7.6900005341  6.8500003815  11.9300003052
H   8.3900003433  8.1300001144  12.7900009155
H   5.4500002861  7.4400000572  12.3600006104
H   6.1600008011  9.0600004196  12.3299999237
H   5.4600000381  6.2700004578  14.6199998856
H   6.4100003242  7.0500001907  15.9300003052
C   12.7100000381  11.5600004196  13.0399999619
C   14.2600011826  11.7800006866  12.7400007248
C   14.5500001907  10.4400005341  12.0699996948
O   13.4200000763  10.2799997330  11.1800003052
C   12.2200002670  10.7000007629  11.8600006104
H   12.2000007629  12.5300006866  13.0300006866
H   12.5700006485  11.0500001907  14.0000009537
H   14.8400011063  12.0400009155  13.6300001144
H   14.5699996948  12.5300006866  12.0000000000
H   14.5600013733  9.7100009918  12.8900003433
H   15.5000009537  10.3400001526  11.5299997330
H   11.7200002670  9.7800006866  12.1900005341
H   11.5000009537  11.1999998093  11.2100009918
C   9.8000001907  19.8200016022  7.6500005722
C   10.8100013733  20.4599990845  6.6200008392
C   10.3400001526  0.4100000262  6.3400001526
O   8.9200000763  0.3499999940  6.7200002670
C   8.9000005722  21.0499992371  7.9500002861
H   10.3100004196  19.6100006104  8.5900001526
H   9.2399997711  18.9600009918  7.2800006866
H   10.9600009918  19.8000011444  5.7500004768
H   11.8800010681  20.4000015259  6.8700003624
H   10.4400005341  0.8000000715  5.3200001717
H   10.8100013733  1.1600000858  6.9900007248
H   7.8600001335  20.8400001526  8.2300004959
H   9.3299999237  0.3000000119  8.6700000763
C   4.8600001335  16.1900005341  14.6600008011
C   6.0100002289  16.6000003815  13.7700004578
C   6.5000004768  17.7900009155  14.5100011826
O   5.3200001717  18.4300003052  15.0700006485
C   4.2400002480  17.5800018311  14.7700014114
H   5.1500005722  15.7100009918  15.6000003815
H   4.0500001907  15.6100006104  14.1900005341
H   5.6600003242  16.8500003815  12.7600002289
H   6.7899999619  15.8400011063  13.6600008011
H   7.0000004768  18.3400001526  13.7100009918
H   7.1700000763  17.5200004578  15.3400001526
H   3.8000001907  17.8700008392  13.8100004196
H   3.5599999428  17.6400012970  15.6300010681
C   18.5400009155  16.7200012207  8.6500005722
C   18.1100006104  15.2700004578  8.9000005722
C   17.1100006104  15.3900003433  10.0000000000
O   17.5300006866  16.5800018311  10.7399997711
C   17.8500003815  17.5600013733  9.8400001526
H   18.1300010681  17.1100006104  7.7200002670
H   19.6300010681  16.7399997711  8.6800003052
H   18.9400005341  14.5800008774  9.0600004196
H   17.6599998474  14.9200010300  7.9700002670
H   17.0000000000  14.6199998856  10.7800006866
H   16.1300010681  15.4899997711  9.5200004578
H   18.4600009918  18.2800006866  10.3900003433
H   16.9600009918  18.0500011444  9.4300003052
C   1.5100001097  0.1200000048  10.3200006485
C   1.9500000477  0.7200000286  11.7200002670
C   0.6400000453  1.0500000715  12.4300003052
O   21.1499996185  1.1100001335  11.3200006485
C   0.0400000028  21.4099998474  10.4899997711
H   1.9500000477  20.5700016022  10.2100000381
H   1.7900000811  0.6700000167  9.4100008011
H   2.6700000763  1.5200001001  11.5200004578
H   2.3500001431  21.3700008392  12.3500003815
H   0.5500000119  2.0300002098  12.9000005722
H   0.3299999833  0.2400000095  13.1100006104
H   21.0600013733  0.0400000028  9.4900007248
H   21.1199989319  20.5000019073  10.9800004959
C   10.0000000000  15.9900007248  6.0300006866
C   10.5800008774  15.0000009537  7.0799999237
C   9.5400009155  15.2200012207  8.3100004196
O   8.7700004578  16.3800010681  7.8900003433
C   8.5600004196  16.1800003052  6.5000004768
H   9.9000005722  15.5600013733  5.0200004578
H   10.4600000381  16.9800014496  6.0400004387
H   11.5900001526  15.2100000381  7.4500007629
H   10.5900001526  13.9900007248  6.6500000954
H   10.1200008392  15.4500007629  9.2100009918
H   9.0200004578  14.2800006866  8.5399999619
H   8.0600004196  17.0500011444  6.0500001907
H   7.9600005150  15.2900009155  6.2400002480
C   3.8600001335  18.1400012970  7.4700002670
C   4.0199999809  16.7500000000  8.1300001144
C   5.3699998856  16.2299995422  7.5600004196
O   5.3699998856  16.7200012207  6.2300004959
C   4.9100003242  18.0800018311  6.3200001717
H   3.9900002480  18.8900012970  8.2500000000
H   2.8699998856  18.3400001526  7.0400004387
H   3.2300000191  16.0600013733  7.8000001907
H   3.8800001144  16.7900009155  9.2100009918
H   5.4900002480  15.1400003433  7.5799999237
H   6.1500000954  16.7900009155  8.0900001526
H   4.5500001907  18.4600009918  5.3600001335
H   5.8100004196  18.6900005341  6.4400005341
C   0.2900000215  8.9200000763  14.8600006104
C   1.7000000477  9.3900003433  15.2200012207
C   2.3900001049  9.4400005341  13.8000011444
O   1.2400000095  9.9900007248  12.9899997711
C   0.0200000014  9.9100008011  13.6800003052
H   20.9500007629  8.9600000381  15.6200008392
H   0.2700000107  7.8900003433  14.5100011826
H   2.1500000954  8.6600008011  15.9100008011
H   1.6400001049  10.3700008392  15.7100009918
H   2.6600000858  8.4900007248  13.3199996948
H   3.1300001144  10.2400007248  13.7900009155
H   20.5900001526  9.7400007248  13.0600013733
H   21.2900009155  10.9000005722  14.1000003815
C   7.0400004387  20.3600006104  11.1900005341
C   6.6100001335  19.0100021362  10.5500011444
C   7.9500002861  18.2400016785  10.6300010681
O   8.6200008392  18.7500019073  11.7899999619
C   8.4500007629  20.1800003052  11.7800006866
H   6.3500003815  20.8000011444  11.9100008011
H   7.0799999237  21.1800003052  10.4500007629
H   6.1700005531  19.0600013733  9.5500001907
H   5.8699998856  18.5500011444  11.2100009918
H   8.5300006866  18.4400005341  9.7200002670
H   7.7900004387  17.1499996185  10.6700000763
H   9.2300004959  20.5000019073  11.0799999237
H   8.6100006104  20.5100021362  12.8200006485
C   6.7800002098  2.7900002003  9.0600004196
C   7.3800001144  3.7699999809  8.0900001526
C   8.2300004959  4.6900000572  8.9600000381
O   8.6300001144  3.9400002956  10.0900001526
C   7.4900002480  3.0999999046  10.3700008392
H   6.9200000763  1.7300000191  8.8400001526
H   5.7000007629  2.9200003147  9.1900005341
H   6.7100000381  4.3800001144  7.4800004959
H   8.1000003815  3.2200002670  7.4700002670
H   7.5300002098  5.5000000000  9.1900005341
H   9.0800008774  5.1000003815  8.4099998474
H   6.9000005722  3.4800002575  11.2100009918
H   7.9400005341  2.1600000858  10.7399997711
C   5.6200003624  12.7600002289  11.4700012207
C   6.1300001144  11.8700008392  10.2600002289
C   7.0200004578  12.8000011444  9.4500007629
O   6.4400005341  14.1200008392  9.6700010300
C   6.1000003815  14.2300014496  11.0900011063
H   6.0100002289  12.4600009918  12.4499998093
H   4.5400004387  12.6900005341  11.6700000763
H   5.2100000381  11.6500005722  9.7100009918
H   6.6700005531  10.9600009918  10.5500011444
H   7.1100001335  12.6300001144  8.3699998856
H   8.0300006866  12.8400001526  9.8700008392
H   5.3699998856  15.0400009155  11.2100009918
H   6.9800000191  14.5600013733  11.6599998474
C   8.9800004959  18.1800003052  3.6600003242
C   7.4700002670  18.7000007629  3.4000000954
C   7.2800006866  18.5600013733  1.9200000763
O   8.6600008011  18.5400009155  1.4100000858
C   9.6300010681  18.7900009155  2.4300000668
H   9.2100009918  17.1100006104  3.6900000572
H   9.4400005341  18.6000022888  4.5600004196
H   7.3500003815  19.7200012207  3.7899999619
H   6.8100004196  18.0200004578  3.9400002956
H   6.7600007057  19.3300018311  1.3300000429
H   6.9400000572  17.5400009155  1.6800000668
H   9.7899999619  19.8700008392  2.4700000286
H   10.5300006866  18.2900009155  2.0600001812
C   4.4500002861  8.8299999237  9.0500001907
C   4.6700000763  9.7100009918  7.7800006866
C   3.8800001144  8.8100004196  6.7000002861
O   3.8100001812  7.5399999619  7.1900005341
C   4.5200004578  7.4000000954  8.4300003052
H   3.4500002861  9.0100002289  9.4500007629
H   5.0600004196  9.1400003433  9.9000005722
H   5.6900000572  9.7600002289  7.3700003624
H   4.1500000954  10.6700000763  7.7900004387
H   4.3200001717  8.7800006866  5.6900000572
H   2.8500003815  9.1700000763  6.5800004005
H   5.5500001907  7.1000003815  8.1700000763
H   3.9600002766  6.6400003433  8.9800004959
C   1.0099999905  6.8400001526  10.4800014496
C   0.2300000191  5.5100002289  10.4400005341
C   1.4100000858  4.4900002480  10.5800008774
O   2.5399999619  5.1600003242  11.2100009918
C   2.0400002003  6.4200000763  11.6599998474
H   0.4200000167  7.7000002861  10.8000001907
H   1.4800000191  7.1199998856  9.5300006866
H   21.2500000000  5.5100002289  9.4300003052
H   20.9799995422  5.3200001717  11.2500000000
H   1.8100000620  4.0800004005  9.6500005722
H   1.1400001049  3.6000001431  11.1600008011
H   2.8600001335  7.1300005913  11.8200006485
H   1.5100001097  6.2899999619  12.6100006104
C   14.2800006866  21.3900012970  9.1600008011
C   13.5400009155  1.0900000334  9.8600006104
C   13.6400012970  2.2100000381  8.8100004196
O   14.8700008392  1.8800001144  8.1600008011
C   14.7000007629  0.5300000310  7.7699999809
H   13.6400012970  20.5100021362  9.0500001907
H   15.2400007248  21.0700016022  9.5699996948
H   14.1300010681  1.4300000668  10.7200002670
H   12.5000000000  0.9300000072  10.1599998474
H   13.6600008011  3.2300000191  9.1999998093
H   12.7900009155  2.0700001717  8.1300001144
H   15.6800003052  0.2400000095  7.3500003815
H   13.9800014496  0.4400000274  6.9500007629
C   10.6600008011  8.8500003815  8.6500005722
C   9.3400001526  9.2399997711  9.2300004959
C   8.5300006866  9.3500003815  7.8700008392
O   9.4400005341  9.7600002289  6.8500003815
C   10.7000007629  10.0200004578  7.5799999237
H   10.6500005722  7.8500003815  8.2000007629
H   11.6100006104  8.9099998474  9.1999998093
H   9.3700008392  10.1900005341  9.7700004578
H   8.9900007248  8.4800004959  9.9400005341
H   7.7200002670  10.0799999237  7.9900002480
H   8.0900001526  8.4000005722  7.5500006676
H   10.6400003433  11.0400009155  7.9900002480
H   11.6100006104  9.8800001144  7.0000004768
C   6.6000003815  11.4500007629  20.3100013733
C   6.4300003052  10.6300010681  18.9800014496
C   7.8400001526  10.0700006485  18.9500007629
O   7.9099998474  9.5100002289  20.2700023651
C   7.5000004768  10.4800014496  21.2000007629
H   5.6600003242  11.7600002289  20.7800006866
H   7.1600003242  12.3299999237  19.9800014496
H   6.2300004959  11.2800006866  18.1300010681
H   5.5200004578  10.0300006866  19.1200008392
H   8.7000007629  10.7500000000  18.8600006104
H   8.0000000000  9.2300004959  18.2700004578
H   8.3300008774  10.9700002670  0.2700000107
H   6.9100003242  10.0100002289  0.5400000215
C   16.6300010681  7.5200004578  12.4200010300
C   17.7399997711  6.4400005341  12.2500000000
C   18.4400005341  6.7000002861  13.6000003815
O   18.6100006104  8.1100006104  13.6700010300
C   17.3200016022  8.6400003433  13.2700004578
H   15.6600008011  7.1900005341  12.8200006485
H   16.4099998474  8.0600004196  11.4900007248
H   18.3999996185  6.6900005341  11.4099998474
H   17.3600006104  5.4200005531  12.1300010681
H   19.3700008392  6.1300001144  13.6300001144
H   17.6900005341  6.3900003433  14.3500003815
H   17.4600009918  9.5699996948  12.7000007629
H   16.8000011444  8.8100004196  14.2200002670
C   15.5600013733  9.0500001907  16.7100009918
C   14.0600004196  9.0500001907  16.3000011444
C   14.0400009155  7.8000001907  15.3300008774
O   15.3200006485  7.2000002861  15.3300008774
C   15.9000005722  7.5200004578  16.6500015259
H   15.7500000000  9.4300003052  17.7200012207
H   16.1400012970  9.6700010300  16.0200004578
H   13.8600006104  9.9900007248  15.7800006866
H   13.4000005722  8.8600006104  17.1499996185
H   13.8200006485  8.0600004196  14.2899999619
H   13.2400016785  7.1100001335  15.6500005722
H   16.9700012207  7.4200005531  16.4700012207
H   15.4899997711  6.9400000572  17.4900016785
C   21.0000019073  10.3600006104  9.1700000763
C   19.9000015259  9.3600006104  8.5500001907
C   19.2100009918  8.9800004959  9.8700008392
O   19.0400009155  10.3200006485  10.3700008392
C   20.1400012970  11.2400007248  10.1100006104
H   0.0100000007  10.8900012970  8.3300008774
H   0.4000000358  9.8500003815  9.6300010681
H   20.3899993896  8.5300006866  8.0399999619
H   19.2100009918  9.8900003433  7.8900003433
H   19.8200016022  8.4400005341  10.6100006104
H   18.2400016785  8.4900007248  9.7000007629
H   20.6300010681  11.5100002289  11.0600004196
H   19.8100013733  12.1800003052  9.6500005722
C   15.6600008011  10.9500007629  7.1000003815
C   16.1100006104  10.7399997711  8.5700006485
C   16.6800003052  12.1500005722  8.8000001907
O   15.5600013733  12.9400005341  8.2900009155
C   15.1100006104  12.3800001144  7.0500001907
H   14.9600009918  10.1599998474  6.8000001907
H   16.5100002289  10.8600006104  6.4200000763
H   16.8500003815  9.9400005341  8.6200008392
H   15.2300014496  10.4400005341  9.1500005722
H   17.5800018311  12.3100004196  8.1900005341
H   16.8500003815  12.3900012970  9.8500003815
H   15.5200004578  12.8800010681  6.1700005531
H   14.0300006866  12.4900007248  6.9300003052
C   11.5700006485  0.0700000003  20.5000019073
C   12.7400007248  20.9099998474  19.5799999237
C   12.9500007629  19.5700016022  20.2900009155
O   11.6800012589  19.1900024414  20.8700008392
C   10.7000007629  20.2299995422  20.6500015259
H   10.9900007248  0.8400000334  19.9700012207
H   11.9600009918  0.4200000167  0.0100000007
H   13.6000003815  0.1400000006  19.5500011444
H   12.4700012207  20.6500015259  18.5500011444
H   13.6100006104  19.7900009155  21.1300010681
H   13.2100009918  18.6400012970  19.7700004578
H   9.8700008392  20.1300010681  21.3500003815
H   10.2799997330  19.8900012970  19.7000007629
C   5.3800005913  16.1400012970  18.4600009918
C   6.7700004578  16.0100002289  19.1399993896
C   6.4600000381  15.9400005341  20.6100006104
O   5.2000002861  15.3900003433  20.6900005341
C   4.5100002289  16.1700019836  19.7100009918
H   5.1300001144  15.1900005341  17.9700012207
H   5.2200002670  17.0200004578  17.8199996948
H   7.4400000572  16.8600006104  18.9800014496
H   7.4000000954  15.1599998474  18.8800010681
H   6.4400005341  16.9000015259  21.1300010681
H   7.1800003052  15.3400001526  21.1800003052
H   4.4300003052  17.2299995422  20.0000000000
H   3.5399999619  15.7200002670  19.4600009918
C   2.2900002003  20.7000007629  17.9500007629
C   2.7300000191  19.2500000000  18.0699996948
C   1.4800000191  18.3900012970  17.9000015259
O   0.5500000119  19.3500003815  17.4300003052
C   0.8300000429  20.5800018311  18.0699996948
H   2.6500000954  21.2200012207  17.0600013733
H   2.6300001144  21.3800010681  18.7400016785
H   3.2100000381  18.9600009918  19.0100021362
H   3.5399999619  19.0900001526  17.3500022888
H   1.1800000668  18.0300006866  18.8900012970
H   1.6400001049  17.6100006104  17.1499996185
H   0.3800000250  20.4700012207  19.0699996948
H   0.2700000107  21.4300003052  17.6500015259
C   7.1800003052  19.9900016785  18.9800014496
C   6.3600006104  20.9500007629  19.9000015259
C   6.9000005722  0.8800000548  19.5100002289
O   6.9600005150  0.6999999881  18.1000003815
C   7.4500007629  20.9000015259  17.7800006866
H   6.6700005531  19.1200008392  18.5600013733
H   8.0600004196  19.7500019073  19.5900001526
H   6.6200008392  20.6400012970  20.9200000763
H   5.2799997330  20.8400001526  19.8000011444
H   7.9300003052  1.0399999619  19.8600006104
H   6.2300004959  1.7200000286  19.7400016785
H   8.5300006866  20.8600025177  17.5800018311
H   6.9300003052  20.6300010681  16.8600006104
C   11.7100000381  21.2900009155  13.8400001526
C   11.9100008011  0.3400000334  15.3200006485
C   13.1800003052  21.0900020599  15.7500000000
O   13.9500007629  21.0100002289  14.5300006866
C   13.0700006485  20.6500015259  13.4400005341
H   11.4799995422  0.5700000525  13.0600013733
H   10.9900007248  20.4599990845  13.8299999237
H   11.0500001907  0.1299999952  15.9600009918
H   12.0000000000  1.4100000858  15.5200004578
H   12.9600000381  20.0800018311  16.1100006104
H   13.8000011444  0.1299999952  16.5100002289
H   13.0500011444  19.5600013733  13.4100008011
H   13.5600004196  20.9300022125  12.5000000000
C   5.6800003052  1.7799999714  5.7900004387
C   4.2500000000  2.1300001144  5.9500002861
C   3.7400002480  0.9200000763  6.5900001526
O   4.3400001526  21.3000011444  5.8699998856
C   5.6300001144  0.3499999940  5.3400001526
H   6.2800002098  1.7400001287  6.7100000381
H   6.2300004959  2.4100000858  5.0900001526
H   3.7500002384  2.3900001049  5.0100002289
H   4.3400001526  3.0200002193  6.5700001717
H   2.6399998665  0.8800000548  6.5700001717
H   4.1500000954  0.8000000715  7.6000003815
H   5.5700006485  0.3100000024  4.2500000000
H   6.5000004768  21.2100009918  5.6500000954
C   15.7800006866  14.5400009155  17.8199996948
C   15.1500015259  13.7500009537  16.7100009918
C   14.9000015259  14.9200010300  15.6500005722
O   14.9100008011  16.1400012970  16.4000015259
C   14.8500003815  15.8199996948  17.7700004578
H   16.8400020599  14.8000001907  17.7100009918
H   15.7900009155  14.0100002289  18.7800006866
H   14.2100009918  13.2100009918  16.8700008392
H   15.9300003052  13.0600013733  16.3600006104
H   13.9400005341  14.8700008392  15.1200008392
H   15.6000003815  15.0000009537  14.8100004196
H   13.8200006485  15.4700002670  17.9100017548
H   15.2300014496  16.6200008392  18.4200019836
C   7.6200003624  11.6700000763  3.8600001335
C   7.8400001526  12.6500015259  5.0200004578
C   6.4000005722  12.7800006866  5.5500001907
O   5.4900002480  12.2500000000  4.5100002289
C   6.2500000000  12.0900011063  3.3900001049
H   7.6700000763  10.5900001526  4.0199999809
H   8.3699998856  11.8100013733  3.0700001717
H   8.3300008774  13.5500001907  4.6400003433
H   8.5300006866  12.1800003052  5.7399997711
H   6.3400001526  13.8299999237  5.8600001335
H   6.3299999237  12.1800003052  6.4700002670
H   6.4000005722  13.0600013733  2.9000000954
H   5.8000001907  11.3000001907  2.7699999809
N   2.3400001526  12.7100000381  8.2300004959
C   1.5700000525  13.8700008392  8.5300006866
C   1.9200000763  14.4200000763  9.9300003052
N   1.5900001526  13.4400005341  10.9600009918
H   2.1600000858  12.0000000000  8.9400005341
H   3.2800002098  13.0300006866  8.4900007248
H   0.5400000215  13.5300006866  8.3199996948
H   1.7699999809  14.6100006104  7.7500004768
H   1.3700001240  15.3600006104  10.0300006866
H   3.0000000000  14.5900011063  9.9600009918
H   1.8900001049  12.5100002289  10.6800003052
H   0.5900000334  13.4100008011  11.1900005341
N   4.8100004196  6.6400003433  2.6399998665
C   5.9000005722  6.1300001144  3.4500002861
C   6.7600007057  7.2800006866  3.9700002670
N   7.4600005150  8.0200004578  2.8500003815
H   4.1200003624  5.9000005722  2.5199999809
H   5.1700000763  6.8800001144  1.7200000286
H   6.4700002670  5.4200005531  2.8400001526
H   5.4000000954  5.5399999619  4.2300000191
H   7.5799999237  6.9300003052  4.6100001335
H   6.1400003433  8.0700006485  4.4300003052
H   7.7699999809  8.9300003052  3.1700000763
H   6.8200006485  8.1400003433  2.0700001717
N   8.7900009155  5.7200002670  0.9900000691
C   10.1400003433  6.2700004578  0.7300000787
C   10.8300008774  5.4500002861  21.1000022888
N   10.1700010300  5.5399999619  19.7400016785
H   8.3300008774  6.1999998093  1.7600001097
H   8.9400005341  4.7500000000  1.2900000811
H   10.7300004959  6.1300001144  1.6500000954
H   10.0300006866  7.3300004005  0.4700000286
H   10.9200000763  4.4000000954  21.3900012970
H   11.8100013733  5.9300003052  20.9900016785
H   10.0400009155  6.5400004387  19.6300010681
H   9.2300004959  5.1399998665  19.8500022888
N   7.8800005913  2.5800001621  14.1800012589
C   8.9099998474  2.2999999523  15.3100004196
C   9.0900001526  3.4400000572  16.3700008392
N   7.9300003052  4.2100005150  16.6100006104
H   8.0399999619  3.4200000763  13.6300001144
H   7.0100002289  2.7800002098  14.6800003052
H   9.8700008392  2.0900001526  14.8100004196
H   8.6900005341  1.3600001335  15.8400011063
H   9.8900003433  4.1599998474  16.1400012970
H   9.4300003052  2.8800001144  17.2500000000
H   7.8000001907  4.1300001144  17.6200008392
H   7.1900005341  3.5900001526  16.2700004578
N   7.0200004578  4.4900002480  20.3600006104
C   6.3299999237  5.5900001526  19.7600002289
C   5.5200004578  6.5100002289  20.6900005341
N   6.3700003624  7.3000001907  0.1500000060
H   6.3800001144  3.8600001335  20.8300018311
H   7.6700000763  4.7900004387  21.0900020599
H   5.6800003052  5.2600002289  18.9500007629
H   7.0600004196  6.1999998093  19.2200012207
H   4.9400000572  5.8800001144  21.3800010681
H   4.9200000763  7.2100000381  20.1000003815
H   7.1600003242  6.7100000381  0.3800000250
H   6.7800002098  8.0600004196  21.0600013733
N   20.8600025177  8.1600008011  5.3400001526
C   0.4300000072  7.1300005913  5.4000000954
C   1.3999999762  7.1600003242  4.2899999619
N   2.5600001812  6.2700004578  4.5500001907
H   20.6700019836  8.2300004959  4.3500003815
H   21.3900012970  9.0100002289  5.5300002098
H   21.3600006104  6.1600008011  5.3800005913
H   0.9200000763  7.1199998856  6.3800001144
H   1.8300001621  8.1600008011  4.1800003052
H   0.9700000286  6.7700004578  3.3500001431
H   3.2500002384  6.6800003052  3.9100003242
H   3.0000000000  6.4700002670  5.4500002861
N   5.6700000763  15.3900003433  3.6100003719
C   4.6600003242  15.2600002289  2.5699999332
C   3.2599999905  15.1300010681  3.2900002003
N   3.2700002193  14.0300006866  4.3300004005
H   5.5999999046  14.5500001907  4.1800003052
H   5.4099998474  16.0600013733  4.3300004005
H   4.8500003815  14.3100013733  2.0400002003
H   4.7700004578  16.0900001526  1.8500000238
H   2.4800000191  15.0000009537  2.5399999619
H   2.9800000191  16.1000022888  3.7300002575
H   3.6400003433  14.2200002670  5.2600002289
H   3.8600001335  13.2600011826  4.0300002098
N   17.7000007629  9.6000003815  4.4100003242
C   17.4500007629  8.7500009537  3.2400000095
C   18.6400012970  8.0000000000  2.7400002480
N   19.5700016022  8.9099998474  2.0000000000
H   18.2300014496  9.1000003815  5.1200003624
H   18.4099998474  10.2600002289  4.0800004005
H   16.9800014496  9.3400001526  2.4400000572
H   16.7500000000  7.9800004959  3.5800001621
H   18.3900012970  7.3200006485  1.9200000763
H   19.2000007629  7.4000000954  3.4700000286
H   18.9400005341  9.4800004959  1.4400000572
H   19.9700012207  9.6000003815  2.6399998665
N   5.0600004196  2.3400001526  15.8500003815
C   5.2200002670  0.9800000191  15.2900009155
C   4.7400002480  0.8600000143  13.8100004196
N   5.5000000000  1.6400001049  12.8600006104
H   5.3100004196  2.3300001621  16.8400020599
H   4.0700001717  2.5300002098  15.9000005722
H   4.8100004196  0.2100000083  15.9500007629
H   6.2800002098  0.6900000572  15.2800006866
H   3.6700000763  1.0900000334  13.8100004196
H   4.8600001335  21.2500000000  13.5300006866
H   5.2699999809  2.6000001431  13.1000003815
H   6.4700002670  1.5000000000  13.1400003433
