940
snapshot_id=eda_1p5m_r3_t10300ps source_time_ps=10300.000000
C   2.5900001526  8.1000003815  17.1200008392
C   1.8200001717  9.4600000381  17.4000015259
C   2.9500002861  10.4899997711  17.5400009155
O   4.0500001907  9.7100009918  18.0699996948
C   3.9500000477  8.3800010681  17.7100009918
H   2.6000001431  8.0300006866  16.0300006866
H   2.0900001526  7.1600003242  17.3700008392
H   1.3100001812  9.5000000000  18.3700008392
H   1.1700000763  9.7000007629  16.5600013733
H   2.7800002098  11.3200006485  18.2400016785
H   3.1900000572  10.8400011063  16.5200004578
H   4.1200003624  7.8400001526  18.6500015259
H   4.8200001717  8.2500000000  17.0600013733
C   12.0300006866  6.9800000191  11.1499996185
C   11.5500011444  5.5300002098  11.5000009537
C   10.3299999237  5.4500002861  10.5500011444
O   9.7500000000  6.7100000381  10.7300004959
C   10.7200002670  7.7000002861  11.1800003052
H   12.5100002289  7.0700001717  10.1700010300
H   12.8000011444  7.3300004005  11.8500003815
H   11.2200012207  5.6300001144  12.5400009155
H   12.3000001907  4.7600002289  11.2700004578
H   9.5800008774  4.6700000763  10.7300004959
H   10.7800006866  5.3900003433  9.5600004196
H   10.4500007629  7.8600001335  12.2300004959
H   10.7300004959  8.6600008011  10.6500005722
C   8.5500001907  3.0299999714  18.8600006104
C   7.1600003242  2.8600001335  18.1900005341
C   6.9100003242  1.3700001240  18.6599998474
O   8.0700006485  0.8899999857  19.2900009155
C   9.1200008392  1.6100001335  18.7500019073
H   8.5500001907  3.3100004196  19.9200019836
H   9.1800003052  3.7699999809  18.3500003815
H   7.2700004578  3.0200002193  17.1100006104
H   6.4800000191  3.6000001431  18.6300010681
H   6.6100001335  0.7100000381  17.8300018311
H   6.1999998093  1.3999999762  19.5000000000
H   9.2600002289  1.2599999905  17.7300014496
H   10.0300006866  1.3800001144  19.3199996948
C   18.4500007629  1.5700000525  3.8500001431
C   17.3000011444  2.5500001907  4.3800001144
C   16.3700008392  1.7100000381  5.3600001335
O   16.9900016785  0.3499999940  5.2300000191
C   18.3900012970  0.5700000525  5.0300002098
H   19.4700012207  1.9400000572  3.7100002766
H   18.1000003815  1.1200000048  2.9200003147
H   16.7800006866  3.1300001144  3.6000001431
H   17.8400001526  3.2800002098  4.9900002480
H   15.3100004196  1.6900001764  5.1000003815
H   16.5900001526  2.1500000954  6.3400001526
H   18.9000015259  21.1600017548  4.7500000000
H   18.8000011444  0.9400000572  5.9800004959
C   15.7200002670  8.3199996948  13.9600000381
C   16.8900012970  8.7600002289  12.9800014496
C   17.7200012207  9.7200002670  13.8800001144
O   16.7399997711  10.3600006104  14.7100009918
C   15.5200004578  9.5900001526  14.8200016022
H   16.0400009155  7.6400003433  14.7600002289
H   14.8500003815  7.9800004959  13.3900012970
H   16.5300006866  9.2500009537  12.0699996948
H   17.4500007629  7.8300004005  12.8300008774
H   18.4099998474  10.4000005722  13.3600006104
H   18.4099998474  9.1800003052  14.5500001907
H   14.7200012207  10.2100000381  14.3800010681
H   15.2700004578  9.2300004959  15.8199996948
C   3.1200001240  15.2100000381  13.8500013351
C   3.0200002193  14.8000001907  12.3299999237
C   3.0900001526  13.2800006866  12.4200010300
O   2.7600002289  12.9300012589  13.7000007629
C   3.3100004196  13.9000015259  14.5400009155
H   2.2400000095  15.7700004578  14.1900005341
H   3.9100003242  15.9600009918  14.0200004578
H   3.8700003624  15.3000011444  11.8400001526
H   2.1000001431  15.0700006485  11.8000011444
H   4.1500000954  13.0000009537  12.3600006104
H   2.4900002480  12.7100000381  11.7000007629
H   4.3900003433  13.8400001526  14.7100009918
H   2.7300000191  13.9000015259  15.4700002670
C   19.1600017548  16.3000011444  12.2000007629
C   19.3500003815  17.8199996948  12.5000000000
C   20.8000011444  17.9600009918  12.2100009918
O   21.4000015259  16.8600006104  12.8900003433
C   20.5500011444  15.7300004959  12.7700004578
H   18.9899997711  16.2000007629  11.1200008392
H   18.3200016022  15.8199996948  12.7100000381
H   19.2800006866  18.1900005341  13.5300006866
H   18.7700004578  18.3200016022  11.7200002670
H   21.1800003052  18.9099998474  12.6100006104
H   21.1600017548  17.9400005341  11.1800003052
H   20.4500007629  15.2000007629  13.7300004959
H   20.9600028992  15.0799999237  11.9800004959
C   7.7900004387  21.4900016785  4.2300000191
C   7.3800001144  0.9700000286  5.3400001526
C   7.2900004387  2.3600001335  4.4900002480
O   7.9400005341  2.0900001526  3.3000001907
C   7.5100002289  0.7900000215  2.9900002480
H   7.2100000381  20.5599994659  4.2699999809
H   8.8100004196  21.1600017548  4.4200000763
H   8.0300006866  1.0399999619  6.2200002670
H   6.3600006104  0.8100000024  5.7300000191
H   7.8600001335  3.1900000572  4.9300003052
H   6.2899999619  2.7600002289  4.3200001717
H   8.1100006104  0.4700000286  2.1200001240
H   6.4700002670  0.8100000024  2.6300001144
C   15.9400005341  4.6199998856  18.6800003052
C   17.1000003815  5.2000002861  19.5900001526
C   17.2700004578  6.6200008392  19.0800018311
O   17.1900005341  6.4500002861  17.6599998474
C   16.0200004578  5.5900001526  17.4400005341
H   14.9400005341  4.5800004005  19.1300010681
H   16.1100006104  3.6300001144  18.2500000000
H   17.9600009918  4.5500001907  19.4000015259
H   16.9000015259  5.1300001144  20.6700019836
H   18.2700004578  6.9900007248  19.3300018311
H   16.4800014496  7.2800006866  19.4600009918
H   15.9800004959  5.1100006104  16.4500007629
H   15.1800012589  6.2899999619  17.4900016785
C   6.4100003242  16.0100002289  3.7200000286
C   5.1700000763  16.4800014496  4.4900002480
C   5.1000003815  17.9800014496  4.2699999809
O   6.1700005531  18.2200012207  3.3600001335
C   7.2200007439  17.3600006104  3.6900000572
H   6.0900001526  15.7000007629  2.7200002670
H   6.9500007629  15.1800012589  4.1900005341
H   5.2900004387  16.1599998474  5.5300002098
H   4.2100005150  16.0200004578  4.2400002480
H   5.2600002289  18.5500011444  5.2000002861
H   4.1900005341  18.3000011444  3.7500002384
H   7.5600004196  17.5600013733  4.7100000381
H   8.0200004578  17.3800010681  2.9500002861
C   4.8900003433  3.5300002098  21.5000000000
C   3.8000001907  3.1400001049  1.0099999905
C   3.4100003242  4.5100002289  1.5600000620
O   3.5500001907  5.3699998856  0.4500000179
C   4.7300000191  5.0500001907  21.2900009155
H   4.6800003052  2.9900002480  20.5700016022
H   5.8500003815  3.2200002670  0.4000000358
H   4.2800002098  2.5699999332  1.8100000620
H   3.0100002289  2.5399999619  0.5400000215
H   3.9700002670  4.9500002861  2.3900001049
H   2.3500001431  4.4400005341  1.8500000238
H   5.5999999046  5.5999999046  0.1700000167
H   4.6900000572  5.3800005913  20.2500000000
C   10.1100006104  16.2900009155  12.2500000000
C   9.6400003433  17.3600006104  13.2100009918
C   9.6700010300  16.5900001526  14.5200004578
O   9.9200000763  15.2100000381  14.1599998474
C   9.5400009155  15.0300006866  12.8700008392
H   11.1999998093  16.2299995422  12.1700000763
H   9.7400007248  16.4200000763  11.2200012207
H   8.6000003815  17.6000003815  12.9899997711
H   10.2900009155  18.2400016785  13.1700000763
H   8.6600008011  16.5900001526  14.9300003052
H   10.2600002289  16.8600006104  15.4000005722
H   8.4400005341  14.9500007629  12.9099998474
H   9.8200006485  14.0900001526  12.3800001144
C   15.8500003815  16.1100006104  19.9600009918
C   16.3300018311  16.6399993896  21.3700008392
C   17.8899993896  16.7600021362  21.1199989319
O   18.2100009918  15.5500011444  20.4300003052
C   17.1000003815  15.2200012207  19.5300006866
H   15.5000009537  16.8900012970  19.2800006866
H   14.9900007248  15.4500007629  20.1300010681
H   16.1100006104  15.8900012970  0.6200000048
H   15.9100008011  17.5600013733  0.2700000107
H   18.4500007629  16.7700004578  0.5500000119
H   18.1500015259  17.5600013733  20.4200000763
H   16.8000011444  14.1800012589  19.7400016785
H   17.5700016022  15.2000007629  18.5400009155
C   20.3500003815  18.4600009918  2.1900000572
C   0.1700000167  19.3000011444  2.2600002289
C   0.2100000083  20.1500015259  1.0099999905
O   20.7000007629  19.6100006104  0.2300000191
C   19.6500015259  19.3100013733  1.1499999762
H   19.8900012970  18.5200004578  3.1800003052
H   20.4400024414  17.4099998474  1.8900001049
H   1.0900000334  18.7000007629  2.2999999523
H   0.2300000191  19.9600009918  3.1300001144
H   1.1700000763  19.9800014496  0.5199999809
H   0.0500000045  21.2000007629  1.3000000715
H   18.7500019073  18.8900012970  0.6700000167
H   19.3100013733  20.2600002289  1.5800000429
C   10.1800003052  20.2299995422  0.2300000191
C   11.1700010300  20.8500003815  1.2500000000
C   11.3200006485  19.7299995422  2.3400001526
O   10.4500007629  18.7200012207  1.9700001478
C   10.3900003433  18.7200012207  0.5300000310
H   10.3500003815  20.4899997711  20.6900005341
H   9.1500005722  20.5100021362  0.4800000191
H   10.8000001907  0.2800000012  1.6700000763
H   12.1000003815  21.1100006104  0.7500000000
H   11.0799999237  20.0900001526  3.3400001526
H   12.3700008392  19.4100017548  2.4400000572
H   9.6599998474  18.0100021362  0.1200000048
H   11.3400001526  18.2800006866  0.1900000125
C   10.4600000381  12.3700008392  5.1200003624
C   9.3000011444  13.4100008011  4.9400000572
C   9.0100002289  13.8700008392  6.4200000763
O   10.0000000000  13.3400011063  7.2300004959
C   10.2600002289  12.0300006866  6.6200008392
H   11.4300003052  12.8600006104  5.1100006104
H   10.5100002289  11.4600000381  4.5000000000
H   8.4099998474  13.0300006866  4.4200000763
H   9.6599998474  14.2100009918  4.2899999619
H   8.0700006485  13.4700012207  6.8300004005
H   9.0200004578  14.9600009918  6.5300006866
H   9.4000005722  11.3500013351  6.7100000381
H   11.2200012207  11.7100000381  7.0500001907
C   12.4100008011  7.3900003433  6.5500001907
C   12.4700012207  8.9700002670  6.3000006676
C   11.8600006104  9.1600008011  4.9500002861
O   11.8500003815  7.9400005341  4.3400001526
C   11.5500011444  7.0300002098  5.3900003433
H   11.9600009918  7.1100001335  7.5100002289
H   13.4100008011  6.9500007629  6.5199999809
H   13.5000000000  9.3299999237  6.3000006676
H   11.9600009918  9.5600004196  7.0700001717
H   12.3999996185  9.8900003433  4.3200001717
H   10.8300008774  9.5100002289  5.0900001526
H   11.6599998474  5.9900002480  5.0900001526
H   10.5399999619  7.0500001907  5.8200001717
C   14.5800008774  18.8400001526  13.1800003052
C   15.3000011444  17.4900016785  13.1700000763
C   16.0900001526  17.6500015259  14.5000000000
O   15.1500015259  18.2200012207  15.4600009918
C   14.1599998474  18.9200000763  14.7000007629
H   13.7100009918  18.7800006866  12.5100002289
H   15.2900009155  19.6200008392  12.8900003433
H   16.0499992371  17.3400001526  12.3800001144
H   14.6900005341  16.5800018311  13.1600008011
H   16.8900012970  18.3600006104  14.2500009537
H   16.6500015259  16.8100013733  14.9400005341
H   14.2700004578  19.9700012207  14.9700012207
H   13.1200008392  18.6100006104  14.8700008392
C   7.8100004196  12.7100000381  14.6700010300
C   6.7500000000  11.5800008774  14.8400011063
C   6.9200000763  11.2400007248  16.3400001526
O   8.3199996948  11.4099998474  16.4700012207
C   8.7399997711  12.6200008392  15.8800010681
H   7.2400002480  13.6400012970  14.7900009155
H   8.3600006104  12.7600002289  13.7200012207
H   6.8700003624  10.6800003052  14.2200002670
H   5.6900000572  11.8800010681  14.8299999237
H   6.6400003433  10.2000007629  16.5100002289
H   6.3700003624  11.9400005341  16.9900016785
H   9.7600002289  12.4499998093  15.5500011444
H   8.7300004959  13.4300003052  16.6300010681
C   12.2500000000  15.5000009537  2.4800000191
C   13.1900005341  15.8100013733  1.2800000906
C   12.6800003052  15.0500011444  0.0700000003
O   11.7100000381  14.1300010681  0.7100000381
C   11.0000000000  14.8299999237  1.7300000191
H   11.9400005341  16.4099998474  3.0200002193
H   12.7400007248  14.8200016022  3.1900000572
H   14.1400003433  15.3800010681  1.6100001335
H   13.2900009155  16.8800010681  1.1000000238
H   13.4800004959  14.5000000000  21.0700016022
H   12.1100006104  15.7700004578  20.9700012207
H   10.4300012589  14.1599998474  2.3700001240
H   10.3000011444  15.4500007629  1.1400001049
C   21.4700012207  12.3500003815  16.3500003815
C   0.2400000095  13.8400001526  16.5800018311
C   20.5400009155  14.2200002670  17.4600009918
O   19.4000015259  13.6100006104  16.8100013733
C   19.9300022125  12.4300003052  16.2100009918
H   0.3200000226  11.6400003433  17.1000003815
H   0.3900000155  12.0800008774  15.3800010681
H   0.3700000048  14.3100013733  15.6000003815
H   1.1800000668  13.9600000381  17.1300010681
H   20.5100021362  15.2700004578  17.7500000000
H   20.5700016022  13.7400007248  18.4500007629
H   19.7800006866  12.4900007248  15.1300010681
H   19.4100017548  11.5700006485  16.6399993896
C   0.4400000274  5.2500004768  4.4300003052
C   0.9000000358  5.4800004959  5.9300003052
C   21.0600013733  5.2600002289  6.6900005341
O   20.4599990845  4.2200002670  5.9100003242
C   20.5200004578  4.5800004005  4.5400004387
H   1.1300001144  4.5100002289  4.0100002289
H   0.3499999940  6.1400003433  3.8000001907
H   1.3600001335  6.4600000381  6.1100001335
H   1.6400001049  4.7200002670  6.1999998093
H   20.4899997711  6.1700005531  6.4600000381
H   21.1499996185  5.1300001144  7.7699999809
H   19.7200012207  5.2900004387  4.2899999619
H   20.4599990845  3.6800003052  3.9100003242
C   18.5500011444  10.1000003815  20.9900016785
C   18.6400012970  11.1800003052  19.9000015259
C   20.1100006104  11.6700000763  20.2400016785
O   20.5200004578  11.0400009155  21.4799995422
C   19.4600009918  10.6500005722  0.6400000453
H   18.9800014496  9.1600008011  20.6400012970
H   17.5100002289  9.9200000763  21.2700004578
H   17.9000015259  11.9600009918  20.1300010681
H   18.5799999237  10.8000001907  18.8700008392
H   20.1200008392  12.7600002289  20.4100017548
H   20.9300022125  11.5700006485  19.5100002289
H   18.9500007629  11.5400009155  1.0399999619
H   19.7400016785  9.9200000763  1.4100000858
C   11.6800012589  18.6100006104  5.8600001335
C   11.5700006485  18.3500003815  7.3600006104
C   10.8100013733  16.9900016785  7.3900003433
O   10.1599998474  16.9800014496  6.1100001335
C   10.2799997330  18.2700004578  5.4800004959
H   12.4499998093  18.0800018311  5.2900004387
H   11.8600006104  19.6800003052  5.7300000191
H   10.9400005341  19.1100006104  7.8500003815
H   12.5100002289  18.3500003815  7.9300003052
H   10.0600004196  17.0600013733  8.1900005341
H   11.4000015259  16.0900001526  7.5700001717
H   9.5600004196  19.0200004578  5.8400006294
H   10.0300006866  18.2600002289  4.4100003242
C   8.4800004959  9.7500000000  3.1900000572
C   7.0500001907  9.5600004196  2.6800000668
C   7.0600004196  10.5700006485  1.5400002003
O   8.4200010300  11.0200004578  1.2900000811
C   9.3299999237  10.0900001526  1.8800001144
H   8.7399997711  8.8100004196  3.6800003052
H   8.4700002670  10.6400003433  3.8300001621
H   6.3200001717  9.8100004196  3.4600000381
H   6.8100004196  8.5100002289  2.4800000191
H   6.4700002670  11.4400005341  1.8400001526
H   6.6900005341  10.1400003433  0.5900000334
H   10.2799997330  10.5700006485  2.1600000858
H   9.4500007629  9.2600002289  1.1700000763
C   1.4300000668  1.7400001287  17.9500007629
C   2.3200001717  2.6100001335  17.0400009155
C   3.6200001240  1.9100000858  17.3200016022
O   3.3100004196  0.4900000095  17.4400005341
C   1.8700001240  0.3600000143  17.5200004578
H   0.3499999940  1.8800001144  17.8400001526
H   1.5200001001  1.8900001049  19.0300006866
H   2.2900002003  3.6800003052  17.3000011444
H   2.0799999237  2.5600001812  15.9800004959
H   4.1200003624  2.2300000191  18.2500000000
H   4.2200002670  2.0099999905  16.4099998474
H   1.5900001526  21.1300010681  18.2800006866
H   1.3700001240  0.0300000012  16.5900001526
C   17.9000015259  0.1299999952  20.4800014496
C   18.8600006104  0.9300000072  19.6000003815
C   18.5000019073  0.3800000250  18.2200012207
O   17.8199996948  20.7200012207  18.3600006104
C   17.9800014496  20.2900009155  19.7299995422
H   16.8600006104  0.4700000286  20.4200000763
H   18.2000007629  0.0300000012  0.0200000014
H   19.8900012970  0.6200000048  19.7900009155
H   18.7900009155  2.0099999905  19.7400016785
H   19.4600009918  0.1700000167  17.7300014496
H   17.9100017548  1.1600000858  17.7100009918
H   18.9000015259  19.7000007629  19.8000011444
H   17.2000007629  19.5500011444  19.9800014496
C   16.8000011444  5.5999999046  11.0200004578
C   17.1900005341  4.2400002480  10.4899997711
C   16.7399997711  4.2200002670  8.9500007629
O   16.0400009155  5.4600000381  8.7399997711
C   15.6300010681  5.9600000381  10.0300006866
H   17.6100006104  6.2899999619  10.7800006866
H   16.6900005341  5.5900001526  12.1100006104
H   16.5600013733  3.5200002193  11.0200004578
H   18.2500000000  3.9700002670  10.5399999619
H   16.0700016022  3.3900001049  8.7000007629
H   17.6100006104  4.2000002861  8.2800006866
H   14.7800006866  5.4099998474  10.4400005341
H   15.3300008774  7.0200004578  9.9800004959
C   21.5100002289  10.5300006866  5.3500003815
C   20.5000019073  10.3600006104  4.1900005341
C   20.4100017548  8.8600006104  3.9600002766
O   20.6599998474  8.3800010681  5.2600002289
C   0.2000000179  9.1500005722  5.9200000763
H   21.1700019836  11.2100009918  6.1300001144
H   0.9400000572  10.9400005341  4.9700002670
H   20.9099998474  10.8400011063  3.2900002003
H   19.5700016022  10.8800010681  4.4500002861
H   21.2700004578  8.5000000000  3.3800003529
H   19.4100017548  8.6300001144  3.5800001621
H   1.1800000668  8.7000007629  5.7300000191
H   21.5100002289  9.0500001907  7.0000004768
C   10.0700006485  5.1600003242  2.4800000191
C   9.0000000000  6.2600002289  2.8699998856
C   7.6800003052  5.5900001526  2.4000000954
O   8.0500011444  5.0200004578  1.1100001335
C   9.2300004959  4.3699998856  1.3400000334
H   10.3500003815  4.4600000381  3.2700002193
H   10.9700002670  5.5900001526  2.0199999809
H   9.2700004578  7.1300005913  2.2700002193
H   9.1000003815  6.5000004768  3.9400002956
H   6.8000001907  6.2300004959  2.2500000000
H   7.5600004196  4.8600001335  3.2100000381
H   9.9100008011  4.4500002861  0.4900000095
H   9.0600004196  3.2900002003  1.4200000763
C   5.6100006104  14.5400009155  9.0600004196
C   6.9400000572  14.9800004959  9.6000003815
C   7.0300002098  16.4200000763  9.0300006866
O   5.6600003242  16.8000011444  9.1100006104
C   4.7200002670  15.7200002670  8.7800006866
H   5.0799999237  13.8000011444  9.6599998474
H   5.8400006294  13.9900007248  8.1400003433
H   7.8300004005  14.3700008392  9.3800001144
H   6.7899999619  15.0500011444  10.6900005341
H   7.4500007629  16.3900012970  8.0200004578
H   7.5300002098  17.0900001526  9.7500000000
H   4.4500002861  15.7600011826  7.7200002670
H   3.8400001526  15.8000001907  9.4300003052
C   2.1500000954  9.8000001907  0.2900000215
C   2.4200000763  9.5800008774  1.8400001526
C   3.4500002861  8.4400005341  1.9200000763
O   4.2000002861  8.6200008392  0.7100000381
C   3.3500001431  8.9800004959  21.1400012970
H   2.1700000763  10.8199996948  21.4000015259
H   1.1300001144  9.5100002289  0.0000000000
H   1.4600001574  9.3100004196  2.2900002003
H   2.7100002766  10.5200004578  2.3200001717
H   2.9700002670  7.4500007629  1.9600000381
H   4.1400003433  8.6600008011  2.7400002480
H   3.0400002003  8.0100002289  20.7400016785
H   3.8600001335  9.6700010300  20.4599990845
C   2.1800000668  14.8800001144  0.3800000250
C   1.1700000763  14.2899999619  20.9700012207
C   0.0000000000  15.3700008392  20.9500007629
O   0.6900000572  16.5600013733  21.0799999237
C   1.6100001335  16.4000015259  0.5300000310
H   3.1900000572  14.8200016022  21.4600009918
H   2.3500001431  14.3200006485  1.3100001812
H   0.9100000858  13.3000001907  21.3700008392
H   1.6200000048  14.1800012589  19.9700012207
H   20.7900009155  15.1200008392  0.2200000137
H   20.9799995422  15.2100000381  20.0000000000
H   1.1300001144  16.5900001526  1.5000000000
H   2.4300000668  17.1300010681  0.4700000286
C   13.0500011444  11.9500007629  9.8200006485
C   13.4100008011  11.1700010300  11.1200008392
C   12.2300004959  11.5700006485  12.0800008774
O   11.1400012970  11.7399997711  11.1600008011
C   11.6599998474  12.4400005341  10.0000000000
H   13.1300010681  11.3700008392  8.8900003433
H   13.6100006104  12.8600006104  9.5699996948
H   14.4000005722  11.3900003433  11.5200004578
H   13.4200000763  10.1000003815  10.8900012970
H   12.5300006866  12.5100002289  12.5600004196
H   11.9400005341  10.8400011063  12.8400001526
H   11.5299997330  13.5300006866  10.0000000000
H   11.0300006866  12.1500005722  9.1500005722
C   13.7000007629  7.3700003624  20.3800010681
C   12.3200016022  7.4600005150  20.8700008392
C   12.6700010300  8.3699998856  0.5199999809
O   13.4800004959  9.3600006104  21.4400005341
C   14.3400001526  8.7500009537  20.4599990845
H   13.6700010300  6.9400000572  19.3800010681
H   14.2800006866  6.7100000381  21.0300025940
H   11.9400005341  6.4700002670  21.1400012970
H   11.5600004196  8.0100002289  20.3000030518
H   13.1000003815  7.8700008392  1.3900001049
H   11.7300014496  8.7800006866  0.9100000858
H   15.3300008774  8.6600008011  20.9200000763
H   14.4500007629  9.4300003052  19.6000003815
C   20.8300018311  1.6400001049  8.8500003815
C   0.3000000119  0.5300000310  9.3800001144
C   20.8600025177  21.3100013733  10.3600006104
O   19.5500011444  0.1800000072  10.0799999237
C   19.6300010681  1.6200000048  9.7500000000
H   20.5200004578  1.3500000238  7.8400001526
H   21.3100013733  2.6200003624  8.8200006485
H   1.1200000048  0.9100000858  9.9900007248
H   0.6800000668  21.3900012970  8.5900001526
H   21.1600017548  0.0700000003  11.3800001144
H   21.0200004578  20.2299995422  10.2400007248
H   19.7400016785  2.3600001335  10.5599994659
H   18.7500019073  1.9800001383  9.1999998093
C   0.2200000137  6.0200004578  20.5100021362
C   21.4000015259  6.6500000954  0.3900000155
C   20.1100006104  5.8200001717  0.7800000310
O   19.9300022125  4.8000001907  21.2900009155
C   21.2300014496  4.5500001907  20.7200012207
H   1.3100001812  5.8800001144  20.4400024414
H   21.3300018311  6.6000003815  19.6800003052
H   21.2500000000  7.7400007248  0.4600000381
H   0.7400000095  6.3400001526  0.9900000691
H   19.2400016785  6.4700002670  0.8100000024
H   20.4300003052  5.3500003815  1.7200000286
H   21.1199989319  4.0000000000  19.7800006866
H   0.3900000155  3.9800002575  21.3700008392
C   8.1100006104  8.3500003815  20.0700016022
C   7.7300004959  9.1200008392  18.7400016785
C   7.6400003433  7.9900002480  17.7300014496
O   6.9500007629  6.9300003052  18.5100002289
C   7.0700001717  7.2000002861  19.9400005341
H   7.9600005150  8.9700002670  20.9600028992
H   9.1000003815  7.8800005913  20.0900001526
H   8.4800004959  9.8600006104  18.4500007629
H   6.7400002480  9.6000003815  18.7200012207
H   8.6800003052  7.6500005722  17.6300010681
H   7.0799999237  8.1700000763  16.8000011444
H   7.3900003433  6.3000006676  20.4899997711
H   6.0599999428  7.5100002289  20.2400016785
C   16.6399993896  20.0700016022  10.1200008392
C   15.7100009918  19.0500011444  9.3900003433
C   15.2500009537  19.7400016785  8.1000003815
O   15.2800006866  21.1199989319  8.4800004959
C   16.3100013733  21.4200019836  9.4400005341
H   17.7100009918  19.8500022888  10.0400009155
H   16.4700012207  20.1300010681  11.1999998093
H   14.7900009155  18.8900012970  9.9600009918
H   16.2200012207  18.0900020599  9.2500009537
H   14.2300014496  19.5000000000  7.7800006866
H   16.0300006866  19.5000000000  7.3600006104
H   16.0700016022  0.7700001001  10.0700006485
H   17.2000007629  0.1700000167  8.8699998856
C   17.8400001526  0.3900000155  13.7200012207
C   18.7400016785  1.2300000191  14.6600008011
C   17.6599998474  2.2900002003  15.0200004578
O   16.4200000763  1.5900001526  15.3400001526
C   16.5900001526  0.3000000119  14.6900005341
H   18.2100009918  20.8899993896  13.5100002289
H   17.7100009918  0.8700000644  12.7500009537
H   19.5400009155  1.7300000191  14.1000003815
H   19.2300014496  0.6500000358  15.4400005341
H   17.4400005341  3.0200002193  14.2300014496
H   17.9200000763  2.8300001621  15.9300003052
H   15.6700000763  21.5100002289  14.1700000763
H   16.8000011444  21.1400012970  15.5300006866
C   7.4700002670  21.3500003815  10.3500003815
C   6.9700002670  21.0499992371  8.9300003052
C   7.7300004959  19.8700008392  8.4400005341
O   8.6900005341  19.5799999237  9.4500007629
C   8.1200008392  20.0200004578  10.7300004959
H   6.7700004578  0.1100000069  11.1400012970
H   8.3199996948  0.5300000310  10.4099998474
H   6.9000005722  0.3800000250  8.2400007248
H   5.9600000381  20.6400012970  9.0900001526
H   8.2300004959  20.1000003815  7.4900002480
H   7.0200004578  19.0600013733  8.2500000000
H   8.9600000381  20.1400012970  11.4300003052
H   7.4000000954  19.2800006866  11.1000003815
C   13.6400012970  15.0300006866  6.4800000191
C   14.8900012970  14.2700004578  6.0500001907
C   15.8500003815  14.5900011063  7.2900004387
O   14.9800004959  15.1300010681  8.3300008774
C   14.1000003815  15.9600009918  7.6500005722
H   13.0200004578  14.2300014496  6.8900003433
H   13.0500011444  15.5800008774  5.7399997711
H   15.3400001526  14.5300006866  5.0900001526
H   14.7700014114  13.1900005341  5.8900003433
H   16.6600017548  15.3000011444  7.0500001907
H   16.4000015259  13.6900005341  7.6100006104
H   14.5900011063  16.8900012970  7.3700003624
H   13.2800006866  16.1300010681  8.3600006104
C   3.3600001335  0.4300000072  6.6599998474
C   2.8100001812  1.5200001001  5.5900001526
C   1.4900000095  0.9000000358  5.1600003242
O   1.6500000954  21.0000019073  5.3900003433
C   2.9700002670  20.6800003052  5.9700002670
H   2.8900001049  0.6100000143  7.6300001144
H   4.4400005341  0.4600000381  6.8500003815
H   3.5000002384  1.4700000286  4.7400002480
H   2.7500000000  2.5300002098  6.0100002289
H   1.3400000334  1.0700000525  4.0800004005
H   0.6100000143  1.2500000000  5.7000007629
H   3.5700001717  20.3400020599  5.1200003624
H   2.8300001621  19.7900009155  6.5900001526
C   0.5400000215  13.8500013351  4.1100001335
C   20.4899997711  13.9800014496  4.1900005341
C   20.3400020599  15.1500015259  5.1300001144
O   21.3800010681  16.0400009155  4.6100001335
C   1.0500000715  15.3300008774  4.3600001335
H   0.8800000548  13.3800010681  3.1800003052
H   1.0600000620  13.2700004578  4.8800001144
H   19.9300022125  13.0700006485  4.4200000763
H   20.0800018311  14.2399997711  3.2100000381
H   20.4899997711  14.8900012970  6.1800003052
H   19.3800010681  15.6400012970  4.9100003242
H   1.7600001097  15.3300008774  5.1900005341
H   1.4900000095  15.7100009918  3.4300003052
C   13.3699998856  1.3600001335  11.0400009155
C   11.9400005341  1.5600000620  10.6000003815
C   11.2200012207  1.6600000858  11.9300003052
O   12.2100009918  1.5800000429  12.9500007629
C   13.3900012970  2.1100001335  12.3999996185
H   14.0200004578  1.7900000811  10.2700004578
H   13.5600004196  0.2900000215  11.1400012970
H   11.6000003815  0.7600000501  9.9400005341
H   11.7700004578  2.5399999619  10.1400003433
H   10.5399999619  0.8200000525  12.1000003815
H   10.6400003433  2.5800001621  12.0900011063
H   14.2500009537  1.8200001717  13.0100011826
H   13.4700012207  3.2100000381  12.3600006104
C   11.8900003433  9.3800001144  15.6600008011
C   11.2200012207  8.7600002289  14.4600009918
C   10.5000009537  7.5600004196  15.1500015259
O   11.5700006485  7.0700001717  15.9600009918
C   12.1199998856  8.2700004578  16.6100006104
H   11.2300004959  10.0799999237  16.1800003052
H   12.7000007629  10.0700006485  15.4000005722
H   11.9500007629  8.2000007629  13.8700008392
H   10.5900001526  9.4600000381  13.9099998474
H   10.1300001144  6.7200002670  14.5500001907
H   9.7000007629  7.9300003052  15.8100013733
H   13.1600008011  8.0799999237  16.9100017548
H   11.5800008774  8.5300006866  17.5300006866
C   4.0399999619  8.7700004578  11.0300006866
C   3.6500000954  10.0700006485  11.9100008011
C   2.1900000572  9.8100004196  12.3500003815
O   1.9700001478  8.3600006104  12.2300004959
C   3.2100000381  7.7200002670  11.7399997711
H   5.1200003624  8.5799999237  10.9900007248
H   3.7200000286  8.8699998856  9.9900007248
H   3.6800003052  10.9700002670  11.2900009155
H   4.2699999809  10.0900001526  12.8200006485
H   1.5300000906  10.3200006485  11.6300010681
H   2.0600001812  10.1800003052  13.3699998856
H   2.9900002480  6.7899999619  11.1900005341
H   3.7100002766  7.4100008011  12.6700010300
C   20.5000019073  7.0900006294  16.0100002289
C   20.0600013733  5.5700006485  16.0300006866
C   21.4099998474  4.7500000000  15.9300003052
O   0.6500000358  5.6800003052  15.1300010681
C   0.0200000014  6.9700002670  14.8600006104
H   20.9500007629  7.4000000954  16.9500007629
H   19.6800003052  7.7900004387  15.8000001907
H   19.4000015259  5.4200005531  15.1599998474
H   19.4800014496  5.3400001526  16.9300003052
H   21.2100009918  3.7600002289  15.5100011826
H   0.3499999940  4.6300001144  16.9200000763
H   20.9900016785  6.9300003052  13.9099998474
H   0.7700001001  7.7500004768  14.6900005341
C   4.5400004387  15.8500003815  18.7200012207
C   5.9200000763  15.2400007248  19.0000000000
C   6.3600006104  14.7100009918  17.6300010681
O   5.5200004578  15.3800010681  16.6000003815
C   4.7400002480  16.3800010681  17.2400016785
H   4.2400002480  16.6399993896  19.4100017548
H   3.7400002480  15.1200008392  18.8800010681
H   5.8299999237  14.4800004959  19.7900009155
H   6.6400003433  15.9600009918  19.4300003052
H   6.2800002098  13.6100006104  17.6400012970
H   7.4000000954  15.0300006866  17.4799995422
H   3.8800001144  16.5699996948  16.5800018311
H   5.3500003815  17.2900009155  17.3299999237
C   20.5000019073  19.0200004578  6.6599998474
C   19.0800018311  18.9200000763  7.2400002480
C   19.1500015259  17.8100013733  8.3199996948
O   20.4700012207  17.2900009155  8.1800003052
C   21.3700008392  18.3299999237  7.7200002670
H   20.8000011444  20.0400009155  6.3900003433
H   20.6700019836  18.4200019836  5.7600002289
H   18.3000011444  18.9200000763  6.4700002670
H   18.8800010681  19.8400001526  7.8000001907
H   18.3999996185  17.0200004578  8.1900005341
H   18.9000015259  18.1800003052  9.3299999237
H   0.8000000715  17.9000015259  7.3800001144
H   21.4400005341  19.1100006104  8.4800004959
C   3.4200000763  19.4400005341  13.5600004196
C   4.0000000000  19.0699996948  12.2000007629
C   2.7300000191  19.1100006104  11.3400001526
O   2.0400002003  20.3000030518  11.7800006866
C   2.2500000000  20.5000019073  13.2700004578
H   4.2000002861  19.8700008392  14.2000007629
H   2.9800000191  18.5300006866  13.9800014496
H   4.4100003242  18.0699996948  12.3400011063
H   4.7600002289  19.7600002289  11.8100013733
H   2.0600001812  18.2500000000  11.4500007629
H   2.9400000572  19.3000011444  10.2799997330
H   1.2900000811  20.2200012207  13.7300004959
H   2.4900002480  0.0400000028  13.4000005722
C   20.6900005341  18.8500003815  17.0900001526
C   0.1800000072  18.5600013733  18.2100009918
C   1.5300000906  18.1700000763  17.4300003052
O   1.3800001144  18.7600002289  16.1400012970
C   21.4900016785  18.5000019073  15.7900009155
H   20.3600006104  19.8900012970  17.0100002289
H   19.7200012207  18.3500003815  17.2000007629
H   21.3300018311  17.7000007629  18.7900009155
H   0.3499999940  19.3100013733  18.9899997711
H   1.6800000668  17.1100006104  17.1800003052
H   2.4200000763  18.5200004578  17.9600009918
H   21.3600006104  17.4799995422  15.4000005722
H   21.2100009918  19.2200012207  15.0200004578
C   14.4900016785  1.9100000858  0.0800000057
C   14.9600009918  1.4600001574  1.4800000191
C   14.0400009155  2.3600001335  2.3900001049
O   14.0700006485  3.6800003052  1.8000000715
C   14.5300006866  3.4900000095  0.4300000072
H   13.4700012207  1.6100001335  21.3500003815
H   15.1500015259  1.6600000858  20.7500000000
H   15.9700012207  1.8000000715  1.7300000191
H   14.7200012207  0.4200000167  1.7100000381
H   14.4400014877  2.3800001144  3.4100003242
H   12.9800014496  2.0799999237  2.3900001049
H   15.5700006485  3.8200001717  0.3100000024
H   13.8500013351  3.9800002575  21.2500000000
C   1.2200000286  3.4500002861  12.6000013351
C   2.3300001621  3.0200002193  11.6000003815
C   2.1400001049  3.9700002670  10.4099998474
O   0.8200000525  4.5400004387  10.6000003815
C   0.7100000381  4.7900004387  11.9800004959
H   1.7200000286  3.5900001526  13.5600004196
H   0.3600000143  2.7800002098  12.7100000381
H   2.3800001144  1.9700001478  11.3000001907
H   3.3400001526  3.1200001240  11.9899997711
H   2.1500000954  3.4600000381  9.4400005341
H   2.8699998856  4.7800002098  10.5700006485
H   21.1700019836  5.0100002289  12.1500005722
H   1.3000000715  5.6800003052  12.2500000000
C   12.9500007629  14.9000015259  15.8600006104
C   14.3200006485  14.7200012207  16.5500011444
C   14.9300003052  13.8500013351  15.4400005341
O   13.9800014496  13.5799999237  14.4300003052
C   12.8300008774  13.5200014114  15.1300010681
H   12.8600006104  15.7400016785  15.1700010300
H   12.2100009918  15.0799999237  16.6500015259
H   14.2500009537  14.2600011826  17.5400009155
H   14.8100004196  15.7000007629  16.5800018311
H   15.2300014496  12.8700008392  15.8300008774
H   15.8100013733  14.4000005722  15.0700006485
H   12.8000011444  12.6800003052  15.8300008774
H   12.0400009155  13.5600004196  14.3800010681
C   16.2299995422  8.9800004959  7.4400000572
C   16.2400016785  10.3700008392  6.9500007629
C   17.7600021362  10.6300010681  6.7800002098
O   18.3100013733  9.8800001144  7.8700008392
C   17.6599998474  8.6300001144  7.7500004768
H   15.9000005722  8.3199996948  6.6200008392
H   15.5399999619  8.6800003052  8.2300004959
H   15.8100013733  10.9800004959  7.7500004768
H   15.7200002670  10.6300010681  6.0200004578
H   18.0699996948  11.6800012589  6.8200006485
H   18.1500015259  10.2299995422  5.8400006294
H   17.6599998474  7.9800004959  8.6400003433
H   18.0699996948  8.0600004196  6.9100003242
C   12.4700012207  1.7799999714  6.7700004578
C   11.3500013351  2.0500001907  5.7900004387
C   10.6000003815  3.0299999714  6.5700001717
O   11.5500011444  3.9100003242  7.1900005341
C   12.8500003815  3.2599999905  7.0900006294
H   13.2800006866  1.1400001049  6.4000005722
H   12.0800008774  1.2599999905  7.6500005722
H   10.8800010681  1.0700000525  5.6400003433
H   11.6400003433  2.4900002480  4.8299999237
H   10.0700006485  2.4700000286  7.3400001526
H   9.9400005341  3.6900000572  5.9900002480
H   13.4400005341  3.4000000954  8.0000000000
H   13.3600006104  3.7200000286  6.2400002480
C   6.9400000572  19.5400009155  15.4800014496
C   8.0700006485  19.6200008392  16.5400009155
C   9.2600002289  20.0800018311  15.5399999619
O   8.7399997711  20.2700023651  14.2300014496
C   7.3900003433  20.5599994659  14.3500003815
H   6.0100002289  19.9000015259  15.9300003052
H   6.7600007057  18.5400009155  15.0600004196
H   8.3600006104  18.6700019836  17.0000000000
H   7.8000001907  20.3700027466  17.3000011444
H   9.9400005341  19.2200012207  15.5000009537
H   9.7200002670  20.9799995422  15.9500007629
H   6.9100003242  20.3600006104  13.3800010681
H   7.3099999428  0.1100000069  14.5800008774
C   15.2800006866  18.2900009155  3.2500002384
C   16.6500015259  18.9000015259  3.6700000763
C   17.4099998474  17.6200008392  4.0500001907
O   16.4500007629  16.6200008392  4.4400005341
C   15.1100006104  17.0900001526  4.2200002670
H   15.2300014496  17.9500007629  2.2100000381
H   14.5699996948  19.1100006104  3.4300003052
H   16.6399993896  19.4600009918  4.6199998856
H   17.1100006104  19.5700016022  2.9400000572
H   18.2400016785  17.6800003052  4.7600002289
H   17.8800010681  17.3299999237  3.0999999046
H   14.7600002289  17.5300006866  5.1600003242
H   14.4400014877  16.2900009155  3.8800001144
C   5.2400007248  12.5500011444  4.7900004387
C   5.4700002670  11.4600000381  5.9700002670
C   4.0300002098  10.8500003815  6.1500000954
O   3.2300000191  11.6100006104  5.1700000763
C   4.0900001526  12.0000000000  4.1200003624
H   6.1300001144  12.5900001526  4.1500000954
H   4.9200000763  13.4900007248  5.2400007248
H   5.8400006294  11.8100013733  6.9400000572
H   6.1600008011  10.6900005341  5.6100006104
H   3.7000000477  11.2700004578  7.1100001335
H   3.8800001144  9.7800006866  5.9400005341
H   3.6600003242  12.7500009537  3.4400000572
H   4.3300004005  11.0799999237  3.5700001717
C   6.0200004578  20.4000015259  21.1000022888
C   5.3200001717  19.3700008392  20.1900005341
C   3.8300001621  19.6599998474  20.3100013733
O   3.7000000477  20.4500007629  21.4600009918
C   4.8400001526  21.3800010681  0.0100000007
H   6.9200000763  20.7300014496  20.5700016022
H   6.3299999237  19.9400005341  0.5300000310
H   5.5300002098  18.3600006104  20.5599994659
H   5.6400003433  19.3500003815  19.1399993896
H   3.2500002384  18.7700004578  20.6100006104
H   3.3400001526  20.2299995422  19.5100002289
H   5.1100006104  0.2900000215  0.9800000191
H   4.5700001717  0.6999999881  20.8500003815
C   20.8300018311  12.4100008011  8.9500007629
C   20.7000007629  13.9700012207  9.0700006485
C   0.5900000334  14.4600009918  8.9700002670
O   1.3900001049  13.3300008774  9.3900003433
C   0.7700001001  12.1400012970  8.7800006866
H   20.2200012207  11.9000005722  8.1900005341
H   20.5500011444  11.8800010681  9.8600006104
H   20.3600006104  14.3500003815  10.0500001907
H   19.9700012207  14.4100008011  8.3800010681
H   0.7900000215  15.3600006104  9.5699996948
H   0.9500000477  14.6500005722  7.9600005150
H   1.0700000525  11.2300004959  9.3299999237
H   1.1800000668  11.9300003052  7.7900004387
C   16.0700016022  6.4800000191  3.6700000763
C   16.1700019836  8.0399999619  3.8300001621
C   16.7000007629  8.4099998474  2.4500000477
O   17.4200019836  7.2900004387  2.0199999809
C   16.6800003052  6.1400003433  2.2800002098
H   15.0000009537  6.2400002480  3.6400003433
H   16.4200000763  5.9500002861  4.5600004196
H   16.9800014496  8.3500003815  4.5100002289
H   15.3500003815  8.6400003433  4.2300000191
H   17.2100009918  9.3800001144  2.4100000858
H   15.9500007629  8.6600008011  1.6800000668
H   17.2200012207  5.1800003052  2.2300000191
H   15.8400011063  6.1400003433  1.5700000525
C   12.0900011063  20.0000000000  18.0900020599
C   13.0300006866  20.8600025177  18.8800010681
C   13.9000015259  19.7500019073  19.5400009155
O   12.8800010681  18.7700004578  20.0500011444
C   11.9800004959  18.6200008392  18.9300003052
H   12.4499998093  19.8500022888  17.0600013733
H   11.0699996948  20.4000015259  18.0500011444
H   12.6500015259  21.4500026703  19.7299995422
H   13.6400012970  0.0400000028  18.3000011444
H   14.4500007629  20.2700023651  20.3400020599
H   14.6000003815  19.2500000000  18.8600006104
H   10.9600009918  18.4500007629  19.3000011444
H   12.1000003815  17.7100009918  18.3400001526
N   16.7800006866  12.4300003052  9.7700004578
C   17.2800006866  12.5400009155  11.0600004196
C   16.4200000763  13.6499996185  11.8000011444
N   16.2700004578  14.9900007248  11.1000003815
H   17.1100006104  13.2100009918  9.1900005341
H   17.1100006104  11.5800008774  9.3200006485
H   18.3500003815  12.7500009537  10.9100008011
H   17.1300010681  11.6400003433  11.6599998474
H   16.7900009155  13.8800001144  12.8100004196
H   15.3800010681  13.3100013733  11.8600006104
H   15.4800014496  15.4600009918  11.5400009155
H   16.1000022888  14.7900009155  10.1200008392
N   11.9000005722  1.5300000906  15.8500003815
C   11.8700008392  2.8699998856  16.4300003052
C   11.0000000000  3.7300002575  15.5100011826
N   9.6000003815  3.2500002384  15.2100000381
H   12.7700004578  1.0600000620  16.1000022888
H   11.7399997711  1.4900000095  14.8500003815
H   12.8400001526  3.3500001431  16.6000003815
H   11.4099998474  2.7600002289  17.4300003052
H   11.6000003815  3.8700003624  14.6000003815
H   11.0000000000  4.7200002670  15.9700012207
H   9.2300004959  3.0700001717  16.1400012970
H   9.6500005722  2.3300001621  14.7800006866
N   4.9500002861  5.3500003815  16.5100002289
C   4.7700004578  5.2000002861  15.0600004196
C   5.9100003242  4.3900003433  14.4500007629
N   7.2300004959  5.2000002861  14.5699996948
H   4.0600004196  5.7200002670  16.8300018311
H   5.7300000191  5.9900002480  16.6500015259
H   4.5900001526  6.1600008011  14.5500001907
H   3.9700002670  4.4600000381  14.9400005341
H   5.6800003052  4.2100005150  13.3900012970
H   6.0700006485  3.3900001049  14.8600006104
H   8.0500011444  4.5800004005  14.5200004578
H   7.3300004005  5.5800004005  15.5100011826
N   6.9500007629  6.1300001144  8.8800010681
C   6.3500003815  5.2900004387  9.9200000763
C   6.6300005913  3.7699999809  9.8700008392
N   6.2300004959  3.2200002670  8.5500001907
H   7.9600005150  6.1100001335  9.0100002289
H   6.6300005913  7.0900006294  8.9500007629
H   5.2699999809  5.4099998474  9.8800001144
H   6.6800003052  5.6700000763  10.9000005722
H   5.9600000381  3.3700001240  10.6300010681
H   7.7000002861  3.6200001240  10.0400009155
H   6.8600006104  3.5399999619  7.8200006485
H   5.3200001717  3.5599999428  8.2600002289
N   6.8000001907  6.2100005150  6.0599999428
C   5.5500001907  6.1999998093  5.4400005341
C   4.4800000191  6.7300004959  6.3600006104
N   4.0800004005  5.8699998856  7.4900002480
H   6.6800003052  6.0100002289  7.0600004196
H   6.9900007248  7.2000002861  6.1800003052
H   5.3699998856  5.1200003624  5.3200001717
H   5.6800003052  6.7500000000  4.5000000000
H   3.5700001717  6.8400001526  5.7700004578
H   4.8299999237  7.7000002861  6.7300004959
H   3.3000001907  6.3000006676  7.9800004959
H   4.8200001717  5.8100004196  8.1900005341
N   7.0600004196  9.5200004578  8.7600002289
C   8.1300001144  9.5500001907  9.7100009918
C   7.8200006485  10.4400005341  10.9200000763
N   7.4800004959  11.8600006104  10.5500011444
H   7.5700001717  9.4200000763  7.8900003433
H   6.5900001526  10.4200000763  8.7100009918
H   8.9700002670  9.8800001144  9.0900001526
H   8.1200008392  8.5300006866  10.1000003815
H   8.6900005341  10.4899997711  11.5800008774
H   7.0600004196  9.8299999237  11.4200010300
H   8.3400001526  12.1700000763  10.0799999237
H   7.3700003624  12.4300003052  11.3900003433
N   14.2600011826  12.1100006104  1.7400001287
C   15.5399999619  12.3100004196  1.1600000858
C   16.5200004578  13.1900005341  1.9300000668
N   16.7900009155  12.6400003433  3.2500002384
H   13.9099998474  11.1800003052  1.4900000095
H   13.6300001144  12.8000011444  1.3300000429
H   15.4700002670  12.5600004196  0.1000000089
H   15.8000001907  11.2600002289  0.9600000381
H   16.0200004578  14.1500005722  2.1200001240
H   17.4700012207  13.3100013733  1.3999999762
H   15.9100008011  12.2900009155  3.6500000954
H   17.1400012970  13.3800010681  3.8600001335
N   0.6800000668  7.5500006676  9.6500005722
C   20.8400001526  8.0500011444  9.4300003052
C   19.9300022125  8.0000000000  10.7500000000
N   20.3700027466  8.9800004959  11.7700004578
H   0.6500000358  6.6000003815  10.0200004578
H   1.0500000715  8.1200008392  10.4099998474
H   20.4000015259  7.4000000954  8.6600008011
H   21.0200004578  9.0100002289  8.9300003052
H   19.7400016785  7.0200004578  11.1999998093
H   18.9400005341  8.3400001526  10.4400005341
H   21.3900012970  8.9400005341  11.7600002289
H   20.2299995422  9.9300003052  11.4200010300
N   11.8800010681  11.9600009918  18.0300006866
C   11.8100013733  11.7000007629  19.5100002289
C   10.3800010681  12.0600013733  20.0000000000
N   10.1000003815  13.5100002289  19.8299999237
H   11.8100013733  12.9600000381  17.8899993896
H   10.9900007248  11.7100000381  17.5900001526
H   12.5100002289  12.2800006866  20.1300010681
H   12.0100011826  10.6300010681  19.6200008392
H   10.3000011444  11.9300003052  21.0799999237
H   9.5800008774  11.4300003052  19.5799999237
H   10.9000005722  14.0500011444  20.1700019836
H   9.3800001144  13.7400007248  20.5100021362
