768
snapshot_id=pure_eda_r3_t10900ps source_time_ps=10900.000000
N   5.7500004768  14.5300006866  13.8100004196
C   6.6200008392  13.4500007629  14.2100009918
C   5.8600001335  12.1400012970  14.5400009155
N   5.2500004768  11.6000003815  13.3400011063
H   5.2000002861  14.2200002670  13.0100011826
H   6.3000006676  15.3300008774  13.5100002289
H   7.0799999237  13.6700010300  15.1800012589
H   7.3600006104  13.3900012970  13.4000005722
H   4.9700002670  12.2100009918  15.1800012589
H   6.5600004196  11.3900003433  14.9400005341
H   5.9100003242  11.4200010300  12.5900001526
H   4.6600003242  12.3800001144  13.0399999619
N   5.0700001717  0.0900000036  13.4000005722
C   3.7200000286  19.0000000000  14.0200004578
C   3.7800002098  18.6599998474  15.5800008774
N   4.0000000000  0.6100000143  16.4200000763
H   5.7900004387  18.7200012207  13.7500009537
H   5.3100004196  1.0399999619  13.7100009918
H   3.5000002384  18.0200004578  13.5700016022
H   2.9100000858  0.3900000155  13.6700010300
H   4.5700001717  17.9200000763  15.7300004959
H   2.7900002003  18.2600002289  15.8300008774
H   3.8900003433  0.3900000155  17.4099998474
H   3.1500003338  1.1499999762  16.2400016785
N   15.8000001907  7.3500003815  12.9899997711
C   14.8400011063  6.2200002670  12.7900009155
C   14.0500011444  5.9400005341  14.0100002289
N   13.2500000000  7.0700001717  14.5900011063
H   16.5000000000  7.0500001907  13.6700010300
H   15.2600002289  8.0100002289  13.5500001907
H   15.4600009918  5.4400005341  12.3299999237
H   14.1100006104  6.5000004768  12.0200004578
H   14.7600002289  5.5999999046  14.7700014114
H   13.3199996948  5.1300001144  13.8500013351
H   12.5400009155  7.3500003815  13.9099998474
H   12.7299995422  6.8900003433  15.4500007629
N   16.3500003815  1.8900001049  4.5700001717
C   15.0500011444  2.5699999332  4.2100005150
C   14.9900007248  3.0299999714  2.6900002956
N   15.9800004959  4.0300002098  2.3700001240
H   16.6100006104  1.1300001144  3.9500000477
H   17.1100006104  2.5500001907  4.3800001144
H   14.8600006104  3.4500002861  4.8299999237
H   14.2100009918  1.9400000572  4.5100002289
H   13.9900007248  3.2300000191  2.2999999523
H   15.2200012207  2.1600000858  2.0600001812
H   16.7800006866  3.8700003624  2.9800000191
H   15.6300010681  4.9400000572  2.6900002956
N   10.9100008011  8.6900005341  13.2000007629
C   9.9300003052  9.7300004959  12.8900003433
C   8.6500005722  9.6400003433  13.7400007248
N   7.8300004005  8.4000005722  13.6600008011
H   10.4200000763  7.8200006485  13.3900012970
H   11.3100004196  8.9500007629  14.1000003815
H   9.6500005722  9.6200008392  11.8300008774
H   10.5399999619  10.6400003433  12.9700002670
H   8.1100006104  10.5399999619  13.4200000763
H   8.9000005722  9.7400007248  14.8100004196
H   7.5900006294  8.3699998856  12.6700010300
H   8.5000000000  7.6400003433  13.7700004578
N   18.3800010681  4.7200002670  4.5900001526
C   0.0300000012  4.1700000763  5.5900001526
C   1.5100001097  4.2100005150  5.1000003815
N   1.9700001478  5.5399999619  5.0000000000
H   18.8200016022  4.7800002098  3.6800003052
H   18.1500015259  5.6500000954  4.9300003052
H   19.0300006866  3.1500003338  5.8900003433
H   19.2100009918  4.7900004387  6.4900007248
H   1.7000000477  3.6900000572  4.1500000954
H   2.1200001240  3.7400002480  5.8800001144
H   1.5499999523  5.9700002670  5.8200001717
H   1.4700000286  5.9300003052  4.2000002861
N   4.9500002861  8.2900009155  14.0900001526
C   3.9300000668  7.7500004768  13.1400003433
C   2.4800000191  8.2800006866  13.3199996948
N   2.3700001240  9.7400007248  13.0600013733
H   4.8600001335  9.3000011444  14.1400003433
H   5.9500002861  8.2000007629  13.9099998474
H   3.8900003433  6.6599998474  13.2400016785
H   4.1500000954  8.0600004196  12.1100006104
H   2.0199999809  8.0900001526  14.2899999619
H   1.8000000715  7.7900004387  12.6100006104
H   1.4400000572  10.0700006485  13.3300008774
H   3.0400002003  10.3000011444  13.6000003815
N   7.7600002289  7.7800006866  10.6300010681
C   6.8600006104  6.6900005341  10.3900003433
C   7.1300005913  6.0900001526  8.9800004959
N   8.3800010681  5.3300004005  8.8299999237
H   7.5600004196  8.6100006104  10.0799999237
H   8.6800003052  7.3600006104  10.4700002670
H   5.8299999237  7.0400004387  10.5200004578
H   7.0400004387  5.9300003052  11.1700010300
H   7.2100000381  6.7600007057  8.1100006104
H   6.4300003052  5.2900004387  8.7000007629
H   9.0600004196  6.0800004005  8.8600006104
H   8.5100002289  4.9300003052  7.9000000954
N   10.8100013733  7.4000000954  8.9000005722
C   11.3600006104  7.2900004387  10.2200012207
C   10.8699998856  6.1200003624  11.1100006104
N   11.5200004578  4.9600000381  10.6600008011
H   11.3600006104  6.7400002480  8.3500003815
H   10.8300008774  8.2900009155  8.4200010300
H   11.2400007248  8.2600002289  10.7100009918
H   12.4499998093  7.2700004578  10.0700006485
H   9.7800006866  5.9900002480  11.0900011063
H   11.2300004959  6.2600002289  12.1400012970
H   12.5300006866  5.0900001526  10.6700000763
H   11.2800006866  4.7700004578  9.6900005341
N   2.7000000477  15.2600002289  13.7000007629
C   1.6400001049  14.2899999619  13.4800004959
C   1.2000000477  13.4500007629  14.7200012207
N   0.3499999940  14.1900005341  15.6100006104
H   3.0100002289  15.4899997711  12.7500009537
H   3.4700000286  14.6800003052  14.0300006866
H   2.0099999905  13.7600002289  12.5900001526
H   0.7800000310  14.8600006104  13.1200008392
H   2.1600000858  13.1700000763  15.1700010300
H   0.7300000787  12.5000000000  14.4300003052
H   18.8000011444  14.3900003433  15.0300006866
H   0.8300000429  15.0700006485  15.7600011826
N   4.3300004005  14.4700002670  11.0799999237
C   3.4900000095  13.4800004959  10.3400001526
C   2.7000000477  14.2200002670  9.2800006866
N   3.5800001621  14.8400011063  8.2000007629
H   5.2600002289  14.1100006104  11.2600002289
H   4.6300001144  15.1000013351  10.3400001526
H   2.8400001526  12.9899997711  11.0799999237
H   4.1900005341  12.7299995422  9.9500007629
H   2.0300002098  14.9500007629  9.7600002289
H   2.2200002670  13.3800010681  8.7600002289
H   3.9900002480  15.7100009918  8.5300006866
H   2.9900002480  15.2200012207  7.4700002670
N   2.4300000668  0.6800000668  1.1100001335
C   2.4400000572  1.6900001764  2.2000000477
C   3.0299999714  2.9500002861  1.5900001526
N   2.4200000763  3.5000002384  0.4600000381
H   2.1200001240  19.0500011444  1.5200001001
H   3.3800003529  0.4700000286  0.8200000525
H   2.9500002861  1.2800000906  3.0800004005
H   1.3800001144  1.8700001240  2.4000000954
H   4.0900001526  2.8500003815  1.3500000238
H   2.9400000572  3.6400003433  2.4300000668
H   2.2300000191  2.6900002956  19.1300010681
H   1.4900000095  3.7500002384  0.7700001001
N   6.6500000954  2.5800001621  13.3800010681
C   7.4600005150  2.0600001812  12.2200002670
C   8.6100006104  3.0500001907  11.7700004578
N   9.8600006104  2.8600001335  12.5900001526
H   7.1800003052  3.3700001240  13.7600002289
H   6.7100000381  1.8700001240  14.1100006104
H   6.9500007629  1.7799999714  11.3000001907
H   7.9500002861  1.1300001144  12.5300006866
H   8.3000001907  4.0800004005  11.9600009918
H   8.8800010681  2.9300000668  10.7100009918
H   10.5700006485  3.3900001049  12.0900011063
H   10.1400003433  1.9300000668  12.2800006866
N   1.5499999523  12.3200016022  18.7100009918
C   1.6900001764  11.0400009155  17.9400005341
C   3.1300001144  10.7200002670  17.2299995422
N   4.2300000191  10.7200002670  18.2700004578
H   1.7200000286  13.1300010681  18.1200008392
H   2.2700002193  12.3500003815  0.1800000072
H   0.8700000644  10.9900007248  17.2100009918
H   1.4400000572  10.2000007629  18.6000022888
H   3.3400001526  11.4600000381  16.4500007629
H   3.0700001717  9.7200002670  16.8000011444
H   5.0900001526  10.5000009537  17.7800006866
H   4.2300000191  9.9500007629  18.9300003052
N   18.0500011444  12.6100006104  7.3000001907
C   18.5000019073  13.0600013733  8.5900001526
C   17.4000015259  13.1000003815  9.6500005722
N   16.4200000763  14.1000003815  9.2700004578
H   17.3100013733  11.9300003052  7.4500007629
H   18.7800006866  12.1199998856  6.7800002098
H   19.0100021362  14.0300006866  8.5799999237
H   19.2100009918  12.3100004196  8.9600000381
H   17.7700004578  13.3500003815  10.6600008011
H   16.8500003815  12.1500005722  9.6200008392
H   16.8300018311  15.0200004578  9.4100008011
H   16.1700019836  14.0100002289  8.2900009155
N   2.9400000572  6.4000005722  0.9300000072
C   1.7400001287  7.1800003052  0.5600000024
C   0.9500000477  7.7400007248  1.7500001192
N   0.5500000119  6.6900005341  2.7200002670
H   3.0400002003  5.5500001907  0.3800000250
H   2.7900002003  6.0200004578  1.8700001240
H   1.1100001335  6.4800000191  19.2400016785
H   2.0000000000  8.1100006104  0.0400000028
H   0.0400000028  8.3199996948  1.5600000620
H   1.6600000858  8.4300003052  2.2300000191
H   0.2000000179  5.8800001144  2.2300000191
H   19.0699996948  7.0700001717  3.3200001717
N   13.5799999237  16.8100013733  3.8000001907
C   14.4200000763  17.9000015259  4.2100005150
C   14.4800004959  18.0100021362  5.7100005150
N   15.2100000381  16.8300018311  6.2500000000
H   13.6600008011  16.8000011444  2.7800002098
H   12.6200008392  17.0900001526  3.9800002575
H   13.9099998474  18.7700004578  3.7699999809
H   15.3900003433  17.8000011444  3.7100002766
H   13.4900007248  18.0600013733  6.1700005531
H   15.0500011444  18.8900012970  6.0100002289
H   16.0100002289  16.7200012207  5.6400003433
H   14.6600008011  15.9900007248  6.1100001335
N   6.3500003815  17.6700000763  10.3700008392
C   7.5900006294  16.9600009918  10.2900009155
C   8.4200010300  17.0700016022  11.5800008774
N   7.8800005913  16.4099998474  12.7100000381
H   6.4800000191  18.6700019836  10.4899997711
H   5.8699998856  17.4200019836  11.2400007248
H   8.2000007629  17.4600009918  9.5200004578
H   7.5100002289  15.8900012970  10.0400009155
H   8.5500001907  18.1300010681  11.8400001526
H   9.4100008011  16.6800003052  11.3299999237
H   7.4700002670  17.1000003815  13.3400011063
H   8.6700000763  15.9900007248  13.2100009918
N   6.8500003815  5.2699999809  0.5400000215
C   7.9500002861  4.2600002289  0.5300000310
C   9.3200006485  4.9100003242  0.5199999809
N   9.5600004196  5.8000001907  1.7200000286
H   5.9000005722  4.9600000381  0.7300000787
H   6.9800000191  5.8000001907  1.3999999762
H   7.9000000954  3.7600002289  18.8100013733
H   7.9000000954  3.5300002098  1.3400000334
H   9.2500009537  5.5200004578  18.8600006104
H   10.1900005341  4.2500000000  0.3800000250
H   8.7900009155  6.4700002670  1.8200001717
H   9.5300006866  5.2100000381  2.5500001907
N   2.9900002480  1.3800001144  10.4000005722
C   3.8400001526  2.5600001812  10.6200008392
C   3.3500001431  3.9800002575  10.2500009537
N   3.0600001812  4.1100001335  8.7900009155
H   2.1600000858  1.4200000763  10.9800004959
H   3.5599999428  0.6200000048  10.7700004578
H   4.7600002289  2.3200001717  10.0799999237
H   4.0900001526  2.6300001144  11.6800012589
H   4.1700000763  4.6600003242  10.5200004578
H   2.4500000477  4.1500000954  10.8600006104
H   2.4900002480  4.9400000572  8.6000003815
H   2.5399999619  3.3000001907  8.4400005341
N   14.5200004578  5.0600004196  8.7600002289
C   14.4100008011  4.9800004959  7.2800006866
C   15.6300010681  5.8500003815  6.6900005341
N   15.4700002670  7.3099999428  6.8600006104
H   14.4700002670  6.0300006866  9.0600004196
H   15.4200000763  4.6500005722  9.0200004578
H   13.4100008011  5.4300003052  7.1700000763
H   14.4600009918  3.9400002956  6.9500007629
H   15.6700000763  5.6300001144  5.6200003624
H   16.6100006104  5.5399999619  7.0700001717
H   15.5700006485  7.4900002480  7.8600001335
H   14.5200004578  7.4900002480  6.5500001907
N   11.8400001526  15.8700008392  18.7100009918
C   12.5500011444  14.6400012970  18.9700012207
C   13.4200000763  14.7900009155  0.9800000191
N   14.7000007629  15.6700000763  0.8200000525
H   12.4499998093  16.6700000763  18.8700008392
H   11.1499996185  16.0100002289  0.2000000179
H   13.0800008774  14.4500007629  18.0200004578
H   11.8000011444  13.8600006104  19.1500015259
H   13.6400012970  13.7700004578  1.3000000715
H   12.8100004196  15.3400001526  1.7100000381
H   15.4300012589  15.2000007629  0.2700000107
H   15.0100002289  15.7100009918  1.7900000811
N   13.6000003815  12.8100004196  14.4900016785
C   14.2300014496  11.4900007248  14.8299999237
C   15.1900005341  10.9400005341  13.7300004959
N   16.1800003052  12.0400009155  13.3199996948
H   13.3000001907  12.9700002670  13.5300006866
H   14.3300008774  13.5100002289  14.6100006104
H   13.4300003052  10.7700004578  15.0300006866
H   14.7900009155  11.5500011444  15.7700004578
H   14.4800004959  10.7899999619  12.9000005722
H   15.5700006485  9.9900007248  14.1300010681
H   15.6600008011  12.8100004196  12.9000005722
H   16.7300014496  12.3299999237  14.1200008392
N   10.3200006485  2.9800000191  15.4400005341
C   9.5500001907  3.9900002480  16.1300010681
C   9.9300003052  5.4300003052  15.6600008011
N   9.6300010681  5.6600003242  14.2200002670
H   10.2900009155  3.2400000095  14.4500007629
H   9.7400007248  2.1400001049  15.4200000763
H   9.7600002289  3.8700003624  17.2000007629
H   8.4900007248  3.9300000668  15.8600006104
H   10.9800004959  5.6600003242  15.9000005722
H   9.3600006104  6.0700006485  16.3400001526
H   8.6700000763  5.3300004005  14.1100006104
H   10.1100006104  4.9800004959  13.6300001144
N   10.8199996948  4.1300001144  4.8100004196
C   11.8100013733  5.1600003242  4.4500002861
C   11.5900001526  6.4000005722  5.3600001335
N   10.2799997330  7.0100002289  5.1800003052
H   11.1100006104  3.5399999619  5.5900001526
H   10.9000005722  3.4200000763  4.0800004005
H   11.7000007629  5.3200001717  3.3800003529
H   12.7900009155  4.7300000191  4.7200002670
H   12.3800001144  7.1400003433  5.2300000191
H   11.6599998474  6.0900001526  6.4100003242
H   10.1100006104  7.1100001335  4.1800003052
H   9.5900001526  6.2700004578  5.3100004196
N   15.3800010681  11.5400009155  5.9100003242
C   15.3000011444  12.0699996948  4.5000000000
C   15.5100011826  13.5900011063  4.3100004196
N   16.9500007629  13.9000015259  4.4300003052
H   14.7200012207  12.0699996948  6.4800000191
H   15.0400009155  10.5800008774  5.8800001144
H   14.2800006866  11.9100008011  4.1200003624
H   15.8400011063  11.4799995422  3.7500002384
H   14.9300003052  14.1500005722  5.0600004196
H   15.2200012207  13.8299999237  3.2800002098
H   17.3500022888  13.7000007629  5.3500003815
H   17.0799999237  14.9100008011  4.3500003815
N   8.3600006104  1.3199999332  3.6300001144
C   8.0000000000  0.0900000036  4.2800002098
C   9.0600004196  18.2200012207  4.0600004196
N   10.4300012589  18.5400009155  4.5200004578
H   9.2899999619  1.6400001049  3.8600001335
H   7.7000002861  2.0700001717  3.8100001812
H   6.9900007248  19.0200004578  4.0199999809
H   7.9099998474  0.2800000012  5.3600001335
H   9.1999998093  17.9600009918  3.0000000000
H   8.8299999237  17.2800006866  4.5800004005
H   10.8800010681  17.6700000763  4.7900004387
H   10.3500003815  18.9800014496  5.4400005341
N   18.1900005341  10.1400003433  9.8200006485
C   17.4300003052  9.3700008392  10.8500003815
C   18.3700008392  9.2700004578  12.1000003815
N   18.8700008392  10.5800008774  12.6599998474
H   18.0800018311  11.1499996185  9.9700002670
H   19.1800003052  10.0000000000  9.9800004959
H   17.1499996185  8.3900003433  10.4500007629
H   16.4700012207  9.8100004196  11.1499996185
H   0.0500000045  8.7700004578  11.8700008392
H   17.9000015259  8.7399997711  12.9400005341
H   18.1100006104  11.1400012970  13.0300006866
H   19.1900024414  11.0600004196  11.8300008774
N   13.0500011444  2.0300002098  11.0100002289
C   13.6700010300  2.9200003147  11.9600009918
C   14.1300010681  2.0300002098  13.2000007629
N   13.0000009537  1.3500000238  13.7900009155
H   13.7300004959  1.4500000477  10.5100002289
H   12.7100000381  2.5600001812  10.2100000381
H   12.9300012589  3.6300001144  12.3500003815
H   14.5000000000  3.4800002575  11.5100002289
H   14.5600013733  2.7000000477  13.9600000381
H   14.9000015259  1.3300000429  12.8800010681
H   12.4200010300  1.0600000620  13.0100011826
H   12.5000000000  2.0300002098  14.3600006104
N   6.9000005722  13.1400003433  7.1500005722
C   7.8100004196  14.1700000763  6.6500000954
C   7.2400002480  14.6800003052  5.3400001526
N   7.2900004387  13.7600002289  4.3100004196
H   6.8400001526  12.4200010300  6.4300003052
H   5.9400005341  13.4900007248  7.1199998856
H   8.8200006485  13.8000011444  6.4200000763
H   7.9700002670  15.0100002289  7.3200006485
H   7.9099998474  15.4700002670  4.9800004959
H   6.2400002480  15.1000013351  5.4900002480
H   7.0200004578  14.1599998474  3.4100003242
H   6.6599998474  12.9700002670  4.4400005341
N   14.7500000000  7.4500007629  17.1100006104
C   13.8900003433  8.3100004196  17.8199996948
C   12.6100006104  7.4600005150  18.2700004578
N   12.8500003815  6.5500001907  0.1900000125
H   14.2500009537  7.3900003433  16.2299995422
H   14.5200004578  6.5500001907  17.5300006866
H   13.5600004196  9.0800008774  17.1100006104
H   14.4300003052  8.6900005341  18.6900005341
H   12.2000007629  6.8400001526  17.4600009918
H   11.8500003815  8.2100000381  18.5100002289
H   12.9899997711  5.5999999046  19.1100006104
H   11.9500007629  6.3400001526  0.6200000048
N   12.3999996185  8.9300003052  2.6800000668
C   11.5900001526  10.1700010300  2.7100002766
C   11.9000005722  11.2100009918  1.5900001526
N   11.7899999619  10.6700000763  0.2599999905
H   12.0000000000  8.2800006866  2.0099999905
H   12.2600002289  8.4600000381  3.5800001621
H   11.7700004578  10.6700000763  3.6700000763
H   10.5700006485  9.7899999619  2.6000001431
H   12.9200000763  11.5299997330  1.8500000238
H   11.2200012207  12.0699996948  1.7300000191
H   10.8500003815  10.3400001526  0.0400000028
H   12.3400011063  9.8100004196  0.2200000137
N   6.9000005722  9.1100006104  17.1000003815
C   7.4900002480  8.1000003815  17.9300003052
C   8.9900007248  8.3600006104  18.3200016022
N   9.0400009155  9.6800003052  18.8500003815
H   5.9400005341  8.7900009155  17.0799999237
H   7.2600002289  8.8500003815  16.1900005341
H   7.5100002289  7.1500005722  17.4000015259
H   6.9700002670  7.9900002480  18.8900012970
H   9.6400003433  8.2100000381  17.4500007629
H   9.2700004578  7.7600002289  19.1900024414
H   8.6500005722  9.5900001526  0.5300000310
H   8.2800006866  10.1300001144  18.3500003815
N   14.0800008774  1.1000000238  17.9600009918
C   13.7500009537  1.9300000668  16.8000011444
C   13.5500001907  3.4700000286  17.1700019836
N   12.3800001144  3.7699999809  17.9700012207
H   14.9200010300  1.4800000191  18.3900012970
H   14.1900005341  0.1200000048  17.7200012207
H   12.8600006104  1.4800000191  16.3400001526
H   14.5200004578  1.8100000620  16.0300006866
H   13.4900007248  4.1400003433  16.3100013733
H   14.4700002670  3.8700003624  17.6300010681
H   12.4300003052  3.1100001335  18.7400016785
H   11.5900001526  3.6400003433  17.3400001526
N   14.3100013733  11.6900005341  8.5500001907
C   14.0700006485  10.9600009918  9.8000001907
C   12.9500007629  11.6000003815  10.6600008011
N   13.3900012970  12.8900003433  11.2300004959
H   14.6000003815  12.6500015259  8.7300004959
H   15.0600004196  11.3700008392  7.9500002861
H   14.9800004959  10.9100008011  10.4099998474
H   13.7700004578  9.9400005341  9.5300006866
H   12.6700010300  10.9800004959  11.5200004578
H   11.9899997711  11.7100000381  10.1300001144
H   12.6700010300  13.6000003815  11.1100006104
H   14.1599998474  13.2400016785  10.6700000763
N   17.3000011444  7.5300002098  4.3000001907
C   16.9200000763  8.7200002670  3.5100002289
C   16.2900009155  8.1700000763  2.1900000572
N   15.0500011444  7.2400002480  2.3300001621
H   17.4099998474  7.8000001907  5.2699999809
H   16.4200000763  7.0400004387  4.4200000763
H   17.8300018311  9.2500009537  3.2100000381
H   16.2200012207  9.4300003052  3.9600002766
H   16.9200000763  7.5300002098  1.5700000525
H   15.9900007248  9.0000000000  1.5499999523
H   14.2399997711  7.8200006485  2.5300002098
H   14.8500003815  6.8000001907  1.4400000572
N   7.9400005341  9.6200008392  6.0900001526
C   8.8600006104  10.5200004578  5.4400005341
C   10.0400009155  10.8400011063  6.3600006104
N   10.7100009918  9.6000003815  6.9500007629
H   7.8300004005  10.0700006485  7.0000004768
H   8.4500007629  8.7600002289  6.2600002289
H   8.3000001907  11.4300003052  5.1800003052
H   9.2399997711  9.9300003052  4.5999999046
H   9.7000007629  11.3500013351  7.2700004578
H   10.7300004959  11.5299997330  5.8600001335
H   11.7200002670  9.7400007248  7.0100002289
H   10.5900001526  8.8100004196  6.3200001717
N   11.1300001144  14.7100009918  15.3200006485
C   10.0400009155  13.7800006866  15.0000009537
C   9.8600006104  12.6599998474  16.0900001526
N   10.6900005341  11.5100002289  15.8199996948
H   12.0400009155  14.4500007629  14.9400005341
H   11.2700004578  14.6800003052  16.3200016022
H   10.2400007248  13.3300008774  14.0200004578
H   9.1900005341  14.4600009918  15.0100002289
H   8.8200006485  12.3000001907  16.0900001526
H   10.0900001526  13.1300010681  17.0500011444
H   10.8400011063  11.1200008392  16.7500000000
H   11.6200008392  11.7600002289  15.4899997711
N   0.6000000238  8.2600002289  7.4400000572
C   0.8100000024  8.9500007629  6.0700006485
C   2.2800002098  9.0700006485  5.6500000954
N   2.9200003147  10.1300001144  6.5400004387
H   19.1500015259  8.7800006866  7.9600005150
H   1.4200000763  8.5000000000  7.9900002480
H   0.3400000334  9.9400005341  6.0800004005
H   0.2800000012  8.3300008774  5.3400001526
H   2.4900002480  9.4200000763  4.6300001144
H   2.7800002098  8.1000003815  5.7200002670
H   2.6100001335  9.9700002670  7.5000004768
H   2.5800001621  11.0400009155  6.2400002480
N   8.0900001526  14.3000011444  18.3200016022
C   8.4200010300  14.4400014877  0.5000000000
C   7.9900002480  15.8900012970  1.0000000000
N   8.8100004196  16.9800014496  0.5000000000
H   8.3699998856  13.3300008774  18.1600017548
H   8.7200002670  14.8400011063  17.7300014496
H   9.5100002289  14.3500003815  0.5600000024
H   7.8800005913  13.6400012970  1.0200001001
H   8.1500005722  16.0499992371  2.0700001717
H   6.9400000572  16.0300006866  0.7300000787
H   8.4400005341  17.8500003815  0.8700000644
H   8.7700004578  17.0799999237  18.7400016785
N   11.4799995422  18.0800018311  1.7200000286
C   12.0900011063  19.2400016785  1.1600000858
C   11.3400001526  1.3500000238  1.5600000620
N   11.4500007629  1.6200000048  3.0200002193
H   11.1700010300  18.2300014496  2.6800000668
H   10.6200008392  17.9200000763  1.2000000477
H   12.1600008011  19.1000003815  0.0700000003
H   13.1400003433  0.0700000003  1.4800000191
H   10.2900009155  1.2900000811  1.2699999809
H   11.8300008774  2.2100000381  1.0800000429
H   12.3800001144  1.3300000429  3.3100004196
H   10.8699998856  0.9600000381  3.5300002098
N   5.3100004196  9.8900003433  10.5399999619
C   4.7100000381  9.5000000000  9.1700000763
C   3.3800003529  8.6400003433  9.2399997711
N   2.2600002289  9.4800004959  9.9000005722
H   5.6200003624  9.1100006104  11.1200008392
H   4.5600004196  10.3100004196  11.1000003815
H   5.4200005531  8.9000005722  8.5799999237
H   4.5000000000  10.4500007629  8.6600008011
H   3.5800001621  7.8600001335  9.9800004959
H   3.1300001144  8.2500000000  8.2400007248
H   2.5800001621  9.6100006104  10.8600006104
H   1.5200001001  8.7900009155  10.0500001907
N   18.0000000000  8.3699998856  17.7300014496
C   18.8500003815  7.8300004005  16.6600017548
C   18.1300010681  7.7900004387  15.2900009155
N   17.1200008392  6.7899999619  15.3200006485
H   17.1300010681  7.8500003815  17.6300010681
H   17.7500000000  9.3400001526  17.5700016022
H   19.0900001526  6.7899999619  16.9400005341
H   0.4700000286  8.4800004959  16.6100006104
H   18.8600006104  7.6300001144  14.4900016785
H   17.5900001526  8.7200002670  15.0700006485
H   16.4600009918  7.0500001907  16.0499992371
H   17.5200004578  5.8699998856  15.5000009537
N   6.9700002670  8.7100009918  2.9100000858
C   5.6500000954  9.2399997711  2.4900002480
C   5.4600000381  10.6600008011  3.0400002003
N   5.5500001907  10.7800006866  4.4300003052
H   6.7600007057  8.3800010681  3.8500001431
H   7.7100000381  9.4200000763  2.8300001621
H   4.9500002861  8.5100002289  2.9000000954
H   5.5700006485  9.2500009537  1.3999999762
H   4.5300002098  11.1200008392  2.6800000668
H   6.2100005150  11.3299999237  2.6000001431
H   6.2600002289  10.2400007248  4.9300003052
H   4.6600003242  10.4500007629  4.8100004196
N   5.1800003052  13.7700004578  18.8200016022
C   4.3000001907  14.6500005722  17.9800014496
C   4.8600001335  16.1200008392  17.8500003815
N   6.0800004005  16.3500003815  17.1100006104
H   6.1400003433  13.9200010300  18.5100002289
H   4.8900003433  12.8200006485  18.5799999237
H   3.3100004196  14.7000007629  18.4500007629
H   4.1400003433  14.2000007629  17.0000000000
H   5.0500001907  16.5000000000  18.8700008392
H   4.0300002098  16.7300014496  17.4799995422
H   5.9600000381  15.8800010681  16.2100009918
H   6.8400001526  15.8100013733  17.5200004578
N   0.6000000238  16.9800014496  2.3099999428
C   0.0600000024  18.0300006866  3.2400000095
C   17.9300003052  17.6900005341  3.8100001812
N   17.9200000763  16.5500011444  4.7800002098
H   19.1200008392  16.9400005341  1.6000001431
H   0.6599999666  16.0700016022  2.7699999809
H   0.0100000007  19.0000000000  2.7300000191
H   0.7700001001  18.1500015259  4.0700001717
H   17.2700004578  17.4799995422  2.9500002861
H   17.6100006104  18.5600013733  4.3900003433
H   18.3299999237  16.8000011444  5.6800003052
H   18.2900009155  15.6700000763  4.4000000954
N   11.1000003815  15.6600008011  5.4000000954
C   11.5200004578  15.7100009918  6.7500000000
C   12.4800004959  14.5600013733  7.2800006866
N   11.8900003433  13.2200002670  7.3000001907
H   10.8699998856  14.6700010300  5.3200001717
H   11.8800010681  15.7800006866  4.7500000000
H   10.5500011444  15.7900009155  7.2600002289
H   11.9600009918  16.6800003052  6.9800000191
H   12.5300006866  14.6400012970  8.3800010681
H   13.4400005341  14.5200004578  6.7500000000
H   11.0300006866  13.1400003433  7.8400001526
H   12.5500011444  12.5400009155  7.6800003052
N   0.1500000060  13.6800003052  2.8500003815
C   0.5100000501  12.3000001907  2.9400000572
C   0.8300000429  11.8000011444  4.4100003242
N   1.8200001717  12.6300001144  5.0900001526
H   18.5900001526  13.8200006485  3.4500002861
H   18.8900012970  13.7100009918  1.9700001478
H   1.4100000858  12.0400009155  2.3600001335
H   18.9300003052  11.6700000763  2.6100001335
H   1.0700000525  10.7300004959  4.4300003052
H   19.2000007629  11.8700008392  5.0500001907
H   1.5000000000  13.5900011063  5.2000002861
H   2.6200003624  12.7900009155  4.4700002670
N   10.2000007629  18.7000007629  7.3700003624
C   9.2500009537  0.4400000274  7.9600005150
C   9.6100006104  1.8500000238  7.4000000954
N   10.9500007629  2.2100000381  7.7800006866
H   9.6700010300  17.8400001526  7.2400002480
H   10.9100008011  18.4600009918  8.0600004196
H   9.2899999619  0.2800000012  9.0400009155
H   8.2500000000  0.0600000024  7.6800003052
H   8.9500007629  2.6100001335  7.8200006485
H   9.4600000381  1.9000000954  6.3100004196
H   11.4700012207  1.3300000429  7.6800003052
H   10.9100008011  2.1700000763  8.8000001907
N   7.3200006485  4.9600000381  4.1500000954
C   6.4200000763  5.7399997711  4.9800004959
C   5.4800004959  4.7300000191  5.7600002289
N   4.9200000763  3.8800001144  4.7800002098
H   7.9800004959  4.3900003433  4.6900000572
H   6.7100000381  4.2899999619  3.6900000572
H   5.7700004578  6.2899999619  4.2899999619
H   6.8600006104  6.4600000381  5.6700000763
H   4.7400002480  5.2600002289  6.3800001144
H   6.0300006866  4.1400003433  6.5000004768
H   4.1200003624  4.3800001144  4.3800001144
H   4.5300002098  3.0100002289  5.1500005722
N   16.9100017548  2.0300002098  0.1200000048
C   18.3000011444  2.3600001335  18.9500007629
C   18.4700012207  3.8700003624  18.5900001526
N   18.4600009918  4.6100001335  0.6400000453
H   16.3000011444  2.6100001335  18.8000011444
H   16.7700004578  2.2900002003  1.0900000334
H   18.6599998474  1.7100000381  18.1400012970
H   19.0100021362  2.0400002003  0.4600000381
H   17.6500015259  4.2800002098  18.0000000000
H   0.1800000072  4.0300002098  18.1000003815
H   17.5200004578  4.4900002480  1.0099999905
H   18.5300006866  5.5900001526  0.3800000250
N   17.6400012970  16.9900016785  10.0700006485
C   18.0100021362  17.1200008392  11.5200004578
C   18.1000003815  18.6900005341  11.9000005722
N   0.0900000036  0.0500000045  11.3700008392
H   18.4099998474  17.4600009918  9.5900001526
H   16.9600009918  17.7500000000  10.0200004578
H   18.9500007629  16.5800018311  11.7300014496
H   17.1700019836  16.7800006866  12.1400012970
H   18.0699996948  18.7600002289  13.0000009537
H   17.2500000000  0.0100000007  11.5299997330
H   19.2000007629  0.1600000113  10.3600006104
H   0.8800000548  18.6700019836  11.4600000381
N   3.3900001049  1.5100001097  6.2400002480
C   4.4600000381  0.6800000668  5.6500000954
C   4.3900003433  18.5600013733  6.2899999619
N   3.0999999046  17.9600009918  5.9400005341
H   3.4300003052  1.7799999714  7.2200007439
H   2.4400000572  1.2100000381  6.0300006866
H   5.4500002861  0.9900000691  6.0000000000
H   4.4600000381  0.6000000238  4.5500001907
H   4.4700002670  18.6700019836  7.3800001144
H   5.1600003242  17.8700008392  5.9200000763
H   3.2800002098  16.9500007629  5.8800001144
H   2.7900002003  18.3299999237  5.0399999619
N   0.1600000113  2.4900002480  15.0000009537
C   0.4500000179  3.2800002098  13.7800006866
C   18.5000019073  3.6600003242  12.8800010681
N   17.6300010681  2.5900001526  12.4900007248
H   1.0200001001  2.5300002098  15.5399999619
H   19.2000007629  1.5400002003  14.7000007629
H   1.1300001144  2.7300000191  13.1200008392
H   1.0000000000  4.1400003433  14.1800012589
H   18.8400001526  4.1300001144  11.9500007629
H   17.8800010681  4.4100003242  13.3800010681
H   17.1700019836  2.1700000763  13.3000001907
H   18.1800003052  1.7900000811  12.1900005341
N   18.4300003052  18.2300014496  19.1300010681
C   18.1400012970  17.6100006104  17.8600006104
C   18.3700008392  18.6000022888  16.6300010681
N   17.2700004578  0.3200000226  16.4700012207
H   17.7500000000  18.9600009918  0.1000000089
H   0.0900000036  18.6500015259  19.0300006866
H   17.1000003815  17.2700004578  17.7700004578
H   18.7000007629  16.6700000763  17.7399997711
H   18.3200016022  17.9700012207  15.7300004959
H   0.0800000057  19.1000003815  16.7300014496
H   17.4900016785  1.1499999762  15.9200010300
H   16.9400005341  0.5700000525  17.4000015259
N   9.8500003815  17.3500022888  16.7800006866
C   10.0799999237  18.6300010681  16.2000007629
C   9.4200000763  18.7700004578  14.8900012970
N   7.9700002670  18.6900005341  15.0100002289
H   10.5800008774  17.1300010681  17.4500007629
H   9.8900003433  16.6900005341  16.0000000000
H   11.1400012970  18.5700016022  15.9200010300
H   9.9600009918  0.2400000095  16.8500003815
H   9.7200002670  17.8700008392  14.3300008774
H   9.7100009918  0.4400000274  14.3800010681
H   7.6900005341  0.2300000191  15.5900001526
H   7.6800003052  17.9800014496  15.6800003052
N   9.5000000000  13.8299999237  9.3000011444
C   9.3299999237  13.2500000000  10.6100006104
C   8.2400007248  12.1400012970  10.8400011063
N   6.9600005150  12.4600009918  10.3000011444
H   8.8800010681  14.6400012970  9.1600008011
H   9.1700000763  13.1600008011  8.6100006104
H   9.2700004578  14.0800008774  11.3299999237
H   10.2700004578  12.7400007248  10.8400011063
H   8.1500005722  11.6200008392  11.7899999619
H   8.4900007248  11.3600006104  10.1100006104
H   6.4100003242  11.6100006104  10.2500009537
H   6.9500007629  12.7800006866  9.3400001526
N   12.2500000000  18.6200008392  9.7800006866
C   12.3700008392  17.7800006866  11.0300006866
C   13.8299999237  17.5800018311  11.3400001526
N   14.5300006866  16.8700008392  10.2400007248
H   12.9099998474  18.2800006866  9.0800008774
H   12.7400007248  0.2400000095  9.9500007629
H   11.8400001526  16.8400020599  10.8400011063
H   11.9400005341  18.1800003052  11.9600009918
H   13.8200006485  16.9100017548  12.2100009918
H   14.3700008392  18.4900016785  11.6599998474
H   14.0200004578  16.0200004578  10.0000000000
H   15.4200000763  16.4600009918  10.5399999619
N   4.1500000954  3.4400000572  15.2200012207
C   4.2699999809  4.7600002289  15.8100013733
C   5.7100005150  5.3200001717  15.9300003052
N   6.3600006104  5.4500002861  14.6400012970
H   4.5600004196  2.6600000858  15.7400016785
H   4.5200004578  3.4500002861  14.2700004578
H   3.7000000477  4.8200001717  16.7399997711
H   3.8100001812  5.5000000000  15.1400003433
H   6.2400002480  4.5300002098  16.4700012207
H   5.6500000954  6.3000006676  16.4200000763
H   6.0500001907  6.3200001717  14.2100009918
H   5.9900002480  4.6900000572  14.0700006485
N   16.0799999237  15.2700004578  14.2500009537
C   15.3200006485  15.5700006485  15.5500011444
C   14.3400001526  16.6600017548  15.2200012207
N   15.1000013351  17.9500007629  14.7400007248
H   16.5400009155  16.1500015259  14.0000009537
H   15.4200000763  15.1599998474  13.4800004959
H   16.0100002289  15.6900014877  16.4000015259
H   14.6900005341  14.6900005341  15.7400016785
H   13.8800001144  16.9700012207  16.1700019836
H   13.4800004959  16.3500003815  14.6100006104
H   15.8400011063  18.2300014496  15.3800010681
H   14.5200004578  18.7900009155  14.8000001907
N   18.1500015259  13.5799999237  0.0600000024
C   17.0100002289  12.7600002289  0.0000000000
C   17.3700008392  11.4600000381  18.5799999237
N   17.5000019073  11.6500005722  17.1400012970
H   18.2300014496  14.2200002670  18.5300006866
H   19.0200004578  13.0399999619  0.0600000024
H   16.2900009155  13.4000005722  18.7500019073
H   16.7500000000  12.5100002289  1.0399999619
H   16.4600009918  10.8500003815  18.6500015259
H   18.1900005341  10.9200000763  19.0699996948
H   18.4300003052  12.0600013733  17.0200004578
H   16.7500000000  12.2700014114  16.8400020599
N   0.6999999881  18.7700004578  8.5600004196
C   19.1500015259  0.1700000167  7.5500006676
C   18.2000007629  1.1300001144  8.2700004578
N   18.9300003052  2.3400001526  8.8699998856
H   1.4500000477  0.1400000006  8.8800010681
H   1.2200000286  18.1100006104  7.9800004959
H   18.5400009155  18.7100009918  6.9900007248
H   0.4900000095  0.6400000453  6.7600007057
H   17.6800003052  0.5500000119  9.0300006866
H   17.4500007629  1.5100001097  7.5700001717
H   0.4800000191  2.0000000000  9.4000005722
H   18.3200016022  2.7800002098  9.5600004196
N   2.7500000000  15.4600009918  4.1900005341
C   3.9800002575  15.0799999237  3.4800002575
C   4.9100003242  16.2500019073  3.2200002670
N   4.4200000763  17.1700019836  2.1300001144
H   2.3200001717  16.2100009918  3.6500000954
H   2.1300001144  14.6600008011  4.2100005150
H   3.7200000286  14.5800008774  2.5399999619
H   4.4900002480  14.3800010681  4.1500000954
H   5.9100003242  15.9200010300  2.9300000668
H   4.9900002480  16.9200000763  4.0900001526
H   3.4400000572  17.3900012970  2.3300001621
H   4.3500003815  16.5699996948  1.3100001812
N   5.4099998474  0.0300000012  0.0400000028
C   6.5700001717  0.8800000548  0.2200000137
C   7.4400000572  0.7400000095  18.2600002289
N   6.9300003052  1.3999999762  17.0900001526
H   5.3100004196  18.5100002289  0.6900000572
H   5.5999999046  18.9300003052  18.3600006104
H   7.1100001335  0.5900000334  1.1300001144
H   6.2300004959  1.9100000858  0.3400000334
H   7.5600004196  18.9400005341  17.9800014496
H   8.4400005341  1.1499999762  18.4700012207
H   6.7500000000  2.3099999428  17.5100002289
H   5.9700002670  1.0700000525  17.0100002289
