832
snapshot_id=pure_thf_r3_t11000ps source_time_ps=11000.000000
C   7.2400002480  7.7100000381  13.3300008774
C   6.4300003052  7.0400004387  12.2400007248
C   5.2699999809  8.0300006866  12.2100009918
O   5.7000007629  9.2899999619  12.7600002289
C   7.1000003815  9.1900005341  13.0399999619
H   8.3000001907  7.4600005150  13.2900009155
H   6.7600007057  7.4700002670  14.2899999619
H   6.1200003624  6.0200004578  12.5200004578
H   7.0100002289  6.9100003242  11.3200006485
H   4.4900002480  7.6000003815  12.8400001526
H   4.9100003242  8.2600002289  11.1999998093
H   7.4200005531  9.8200006485  13.8800001144
H   7.5500006676  9.5600004196  12.1199998856
C   11.7899999619  19.5200004578  0.0500000045
C   11.9000005722  19.3600006104  1.6299999952
C   13.4300003052  19.2400016785  1.7100000381
O   13.9200010300  18.8200016022  0.4600000381
C   12.8400001526  18.4600009918  20.2100009918
H   11.9800004959  20.5300025940  20.3000030518
H   10.7399997711  19.3100013733  20.4400024414
H   11.3500013351  18.4799995422  1.9800001383
H   11.3900003433  20.2100009918  2.1000001431
H   13.6200008392  18.3900012970  2.3600001335
H   13.9900007248  20.1300010681  2.0199999809
H   12.7200012207  17.3900012970  20.3800010681
H   13.0700006485  18.6700019836  19.1600017548
C   4.2400002480  2.2500000000  5.2699999809
C   5.4000000954  3.1400001049  5.8000001907
C   5.5200004578  4.3000001907  4.6900000572
O   4.7800002098  3.7200000286  3.5800001621
C   4.5100002289  2.3300001621  3.7800002098
H   3.3000001907  2.6600000858  5.6500000954
H   4.2100005150  1.2300000191  5.6700000763
H   6.3500003815  2.6399998665  6.0300006866
H   5.1600003242  3.6900000572  6.7100000381
H   6.5000004768  4.5700001717  4.2800002098
H   5.0300002098  5.2300000191  4.9900002480
H   5.3900003433  1.7200000286  3.5700001717
H   3.7000000477  1.8900001049  3.1700000763
C   1.5700000525  4.6400003433  0.7200000286
C   0.7900000215  3.3800003529  0.0100000007
C   1.7600001097  3.0100002289  19.5000000000
O   3.0800004005  3.2300000191  19.9800014496
C   2.9800000191  4.5999999046  20.5800018311
H   1.8100000620  4.5700001717  1.7799999714
H   1.0800000429  5.6100006104  0.5700000525
H   20.3800010681  3.5900001526  20.2900009155
H   0.6200000048  2.5600001812  0.7100000381
H   1.5400002003  3.7100002766  18.6800003052
H   1.6000001431  2.0099999905  19.0600013733
H   2.9500002861  5.3900003433  19.8200016022
H   3.8600001335  4.7800002098  0.5900000334
C   15.5800008774  1.8400001526  2.6800000668
C   16.1300010681  1.3300000429  1.3199999332
C   15.0500011444  1.9300000668  0.2599999905
O   14.5000000000  3.0700001717  0.9400000572
C   14.3600006104  2.6500000954  2.3700001240
H   16.3300018311  2.5199999809  3.1100001335
H   15.4000005722  1.0700000525  3.4400000572
H   16.1800003052  0.2400000095  1.2100000381
H   17.1499996185  1.6700000763  1.1400001049
H   14.2700004578  1.1900000572  0.0300000012
H   15.5200004578  2.2999999523  19.9600009918
H   13.4300003052  2.0799999237  2.5000000000
H   14.4100008011  3.5200002193  3.0500001907
C   1.4500000477  13.4600009918  2.8800001144
C   0.6400000453  13.8299999237  4.2200002670
C   1.4500000477  13.0700006485  5.3000001907
O   2.6000001431  12.3900012970  4.5800004005
C   2.8900001049  13.1900005341  3.4200000763
H   1.4900000095  14.2800006866  2.1500000954
H   0.9400000572  12.7299995422  2.2300000191
H   20.1800003052  13.6600008011  4.2000002861
H   0.6800000668  14.9100008011  4.3900003433
H   0.8500000238  12.3299999237  5.8500003815
H   1.9200000763  13.7500009537  6.0300006866
H   3.5599999428  12.6599998474  2.7300000191
H   3.3600001335  14.1200008392  3.7500002384
C   11.7899999619  10.0400009155  10.2100000381
C   12.1000003815  9.2899999619  11.5299997330
C   10.6800003052  9.4200000763  12.1900005341
O   10.2299995422  10.7600011826  11.8000011444
C   11.2300004959  11.2700004578  10.8400011063
H   11.1600008011  9.3800001144  9.6000003815
H   12.7700004578  10.1599998474  9.7300004959
H   12.9000005722  9.7000007629  12.1500005722
H   12.3800001144  8.2700004578  11.2500000000
H   10.5800008774  9.1400003433  13.2500000000
H   10.0300006866  8.7200002670  11.6400003433
H   11.9899997711  11.8000011444  11.4300003052
H   10.7700004578  11.9899997711  10.1599998474
C   16.6800003052  2.7300000191  8.6600008011
C   17.8100013733  3.0299999714  7.6100006104
C   18.7600002289  1.8600000143  7.6900005341
O   18.4500007629  1.1400001049  8.9400005341
C   17.4900016785  1.9800001383  9.6800003052
H   15.9000005722  2.0900001526  8.2300004959
H   16.2000007629  3.6200001240  9.0700006485
H   18.3700008392  3.9100003242  7.9400005341
H   17.5000019073  3.3000001907  6.6000003815
H   19.8100013733  2.1500000954  7.6000003815
H   18.5600013733  1.1000000238  6.9200000763
H   17.9900016785  2.7400002480  10.2900009155
H   16.7800006866  1.3900001049  10.2700004578
C   6.7700004578  11.5100002289  3.3500001431
C   8.1000003815  12.2300004959  3.2500002384
C   8.6400003433  11.5500011444  1.9400000572
O   7.4900002480  11.4700012207  1.1300001144
C   6.3400001526  11.2500000000  1.8400001526
H   6.1100001335  12.2600002289  3.8000001907
H   6.8500003815  10.6100006104  3.9700002670
H   8.8100004196  12.0500001907  4.0700001717
H   7.9300003052  13.3000001907  3.0800004005
H   9.1100006104  10.5700006485  2.1300001144
H   9.3800001144  12.1300010681  1.3700001240
H   6.0500001907  10.1900005341  1.7799999714
H   5.5100002289  11.9300003052  1.5900001526
C   0.1000000089  15.3200006485  17.8500003815
C   20.2400016785  14.3200006485  18.9600009918
C   0.9700000286  13.9600000381  19.5500011444
O   1.8900001049  14.0400009155  18.4799995422
C   1.2400000095  14.4800004959  17.3000011444
H   0.4300000072  16.2800006866  18.2500000000
H   19.9300022125  15.4700002670  17.1000003815
H   19.6100006104  13.5700016022  18.4799995422
H   19.6100006104  14.7600002289  19.7400016785
H   0.9400000572  12.9600000381  20.0000000000
H   1.3100001812  14.6700010300  20.3100013733
H   0.9300000072  13.5799999237  16.7700004578
H   1.9000000954  15.1500015259  16.7399997711
C   7.1000003815  0.4000000358  7.6300001144
C   7.7200002670  19.8900012970  8.5600004196
C   9.0200004578  20.4400024414  9.1300001144
O   9.3400001526  1.0000000000  8.2800006866
C   8.4900007248  0.9200000763  7.1600003242
H   6.5500001907  1.1900000572  8.1600008011
H   6.5500001907  0.1200000048  6.7200002670
H   7.9200005531  18.9800014496  7.9700002670
H   6.9800000191  19.5700016022  9.3000011444
H   9.8299999237  19.7100009918  9.0500001907
H   8.8900003433  0.0700000003  10.1900005341
H   8.8100004196  0.1400000006  6.4600000381
H   8.4400005341  1.9300000668  6.7400002480
C   10.0400009155  15.5800008774  18.2700004578
C   11.2300004959  14.9700012207  17.4900016785
C   12.0800008774  16.2100009918  16.9700012207
O   11.4300003052  17.4400005341  17.5500011444
C   10.0200004578  17.1300010681  17.8500003815
H   10.3000011444  15.5100011826  19.3300018311
H   9.1500005722  14.9800004959  18.0400009155
H   10.7300004959  14.3900003433  16.7100009918
H   11.8800010681  14.3900003433  18.1500015259
H   12.1000003815  16.3800010681  15.8900012970
H   13.0900001526  16.2200012207  17.4000015259
H   9.3700008392  17.1900005341  16.9600009918
H   9.6000003815  17.8000011444  18.6100006104
C   11.1200008392  15.1100006104  7.2700004578
C   11.8700008392  16.3300018311  7.8400001526
C   10.7000007629  17.2800006866  8.2700004578
O   9.6100006104  16.4500007629  8.6200008392
C   9.6800003052  15.1100006104  8.0000000000
H   11.6900005341  14.1900005341  7.4000000954
H   10.9600009918  15.1800012589  6.1900000572
H   12.3299999237  16.8500003815  7.0000004768
H   12.6200008392  16.1300010681  8.6100006104
H   10.3800010681  17.7900009155  7.3500003815
H   10.9600009918  18.0100021362  9.0400009155
H   8.8299999237  14.9000015259  7.3500003815
H   9.6000003815  14.3300008774  8.7600002289
C   15.6100006104  16.0300006866  1.3000000715
C   16.7399997711  17.0500011444  1.1100001335
C   17.8400001526  16.3100013733  1.9100000858
O   17.7900009155  15.0100002289  1.2699999809
C   16.3600006104  14.7600002289  1.1600000858
H   14.7300004959  16.0400009155  0.6500000358
H   15.2500009537  16.0499992371  2.3300001621
H   16.4500007629  18.0300006866  1.5000000000
H   17.1300010681  17.1300010681  0.0900000036
H   17.6400012970  16.1800003052  2.9800000191
H   18.8700008392  16.6700000763  1.8200001717
H   16.0100002289  14.1500005722  2.0000000000
H   16.1500015259  14.1599998474  0.2599999905
C   20.4899997711  0.8800000548  13.8299999237
C   20.3500003815  2.4300000668  14.1000003815
C   18.8800010681  2.7600002289  13.5700016022
O   18.3000011444  1.4700000286  13.3100013733
C   19.3300018311  0.5900000334  12.8600006104
H   20.4100017548  0.3100000024  14.7700014114
H   0.8800000548  0.7400000095  13.4300003052
H   0.4200000167  2.9800000191  13.4500007629
H   20.4100017548  2.6200003624  15.1700010300
H   18.8300018311  3.3400001526  12.6300001144
H   18.3000011444  3.3600001335  14.2899999619
H   19.6900005341  0.7300000787  11.8300008774
H   19.0600013733  20.1500015259  12.9200000763
C   17.9500007629  4.9000000954  2.2800002098
C   17.9000015259  5.8900003433  3.4700000286
C   19.3199996948  6.0100002289  3.9200000763
O   20.0800018311  4.9100003242  3.3000001907
C   19.0500011444  3.9800002575  2.8699998856
H   18.4200019836  5.3400001526  1.3999999762
H   16.9300003052  4.5300002098  2.0900001526
H   17.3000011444  5.5100002289  4.3000001907
H   17.4700012207  6.8500003815  3.1800003052
H   19.4800014496  6.0000000000  5.0000000000
H   19.6900005341  6.9400000572  3.4600000381
H   18.5300006866  3.4300003052  3.6600003242
H   19.4800014496  3.2900002003  2.1300001144
C   7.2500000000  17.9500007629  2.0799999237
C   8.4300003052  16.9500007629  2.2600002289
C   9.0300006866  17.2600002289  3.6100003719
O   8.5100002289  18.5200004578  4.0900001526
C   7.7900004387  19.1200008392  3.0299999714
H   6.2800002098  17.6200008392  2.4600000381
H   7.1000003815  18.2700004578  1.0399999619
H   9.1999998093  17.0700016022  1.4900000095
H   8.0100002289  15.9400005341  2.2900002003
H   10.1200008392  17.3700008392  3.5300002098
H   8.8600006104  16.5400009155  4.4200000763
H   8.4800004959  19.7800006866  2.4900002480
H   7.0500001907  19.8200016022  3.4200000763
C   4.8500003815  12.7400007248  18.2400016785
C   6.3200001717  12.2500000000  18.3600006104
C   6.9300003052  13.4000005722  19.2100009918
O   6.3500003815  14.5699996948  18.5700016022
C   4.9500002861  14.3100013733  18.2300014496
H   4.1400003433  12.4800004959  19.0300006866
H   4.5300002098  12.3000001907  17.2900009155
H   6.9000005722  12.0100011826  17.4600009918
H   6.3800001144  11.3700008392  19.0200004578
H   8.0200004578  13.4700012207  19.1000003815
H   6.6800003052  13.5100002289  20.2700023651
H   4.7800002098  14.8200016022  17.2800006866
H   4.2699999809  14.9100008011  18.8400001526
C   6.9200000763  12.1199998856  8.7700004578
C   6.7300004959  11.1900005341  10.0200004578
C   7.0700001717  9.8100004196  9.4200000763
O   6.8000001907  9.9200000763  8.0300006866
C   6.2899999619  11.2700004578  7.7600002289
H   7.9600005150  12.2700014114  8.4500007629
H   6.4900007248  13.1200008392  8.7600002289
H   5.6800003052  11.2400007248  10.3299999237
H   7.3500003815  11.4500007629  10.8800010681
H   6.4900007248  8.9600000381  9.7800006866
H   8.1300001144  9.5500001907  9.5900001526
H   5.2100000381  11.3000001907  7.9200005531
H   6.5700001717  11.5400009155  6.7400002480
C   4.2300000191  2.5900001526  12.0500001907
C   4.8800001144  2.9500002861  10.7500000000
C   6.4100003242  2.5100002289  10.8800010681
O   6.3200001717  1.5600000620  11.9899997711
C   4.9200000763  1.2500000000  12.2800006866
H   3.1600000858  2.3600001335  11.9400005341
H   4.4100003242  3.2800002098  12.8800010681
H   4.7700004578  4.0399999619  10.6500005722
H   4.2899999619  2.4000000954  10.0100002289
H   7.1300005913  3.3200001717  11.0500001907
H   6.7000002861  1.9000000954  10.0200004578
H   4.8600001335  1.0099999905  13.3400011063
H   4.4700002670  0.4500000179  11.6800012589
C   2.6200003624  20.0800018311  19.9400005341
C   2.4800000191  18.5900001526  20.3299999237
C   3.5700001717  18.4200019836  0.8500000238
O   3.3299999237  19.5900001526  1.6299999952
C   3.0100002289  0.0700000003  0.7100000381
H   1.6800000668  20.5200004578  19.6100006104
H   3.3800003529  20.3199996948  19.1800003052
H   2.6500000954  17.8899993896  19.5100002289
H   1.4800000191  18.4099998474  0.1299999952
H   4.5999999046  18.2800006866  0.5000000000
H   3.4200000763  17.5000019073  1.4300000668
H   3.8400001526  0.8000000715  0.6999999881
H   2.1500000954  0.6400000453  1.0700000525
C   4.7200002670  4.1599998474  16.1100006104
C   4.6600003242  2.6500000954  16.3000011444
C   3.2400000095  2.2300000191  15.6900014877
O   2.6800000668  3.5399999619  15.4300012589
C   3.2000002861  4.5500001907  16.1900005341
H   5.2200002670  4.4100003242  15.1700010300
H   5.3500003815  4.6199998856  16.8700008392
H   4.6400003433  2.3600001335  17.3500022888
H   5.4800004959  2.0600001812  15.8800010681
H   2.5699999332  1.6600000858  16.3500003815
H   3.3299999237  1.7900000811  14.6900005341
H   2.8800001144  4.4800000191  17.2400016785
H   3.0400002003  5.5100002289  15.6900014877
C   19.7200012207  19.5400009155  3.9900002480
C   0.2300000191  20.2700023651  4.8500003815
C   0.6200000048  0.8600000143  3.9900002480
O   20.2000007629  0.9100000858  2.9500002861
C   19.0800018311  0.1900000125  3.5399999619
H   19.1300010681  18.7400016785  4.4600000381
H   20.1300010681  19.0500011444  3.0999999046
H   1.0900000334  19.6100006104  4.9900002480
H   20.4899997711  0.0400000028  5.8100004196
H   1.6100001335  0.9200000763  3.5200002193
H   0.5300000310  1.8200001717  4.5100002289
H   18.3600006104  20.6100006104  2.7400002480
H   18.5500011444  0.8200000525  4.2699999809
C   16.1900005341  16.8600006104  9.7800006866
C   16.5699996948  18.2500000000  9.3900003433
C   17.3600006104  18.8200016022  10.5700006485
O   17.0200004578  17.9300003052  11.6800012589
C   15.9100008011  17.0600013733  11.3299999237
H   16.9500007629  16.0900001526  9.5800008774
H   15.2800006866  16.4200000763  9.3600006104
H   15.6900014877  18.8600006104  9.1600008011
H   17.1599998474  18.2800006866  8.4700002670
H   16.8400020599  19.7600002289  10.8100013733
H   18.4300003052  18.9000015259  10.3299999237
H   14.9900007248  17.5500011444  11.6500005722
H   16.0499992371  16.0700016022  11.8000011444
C   1.7000000477  7.9500002861  13.9700012207
C   0.7100000381  6.9900007248  14.6800003052
C   0.5800000429  5.9300003052  13.6800003052
O   0.5500000119  6.5800004005  12.4900007248
C   1.6400001049  7.5000004768  12.4900007248
H   2.6900002956  7.8400001526  14.4200000763
H   1.4600001574  9.0100002289  14.0800008774
H   20.3500003815  7.4900002480  14.7600002289
H   1.0700000525  6.6300005913  15.6500005722
H   20.2400016785  5.4200005531  13.8600006104
H   1.4600001574  5.2900004387  13.7400007248
H   1.3500000238  8.2900009155  11.7800006866
H   2.5500001907  7.0100002289  12.1400012970
C   20.3899993896  16.5300006866  13.9300003052
C   19.3199996948  15.5700006485  13.2600011826
C   19.6200008392  15.5800008774  11.8100013733
O   0.1200000048  16.4099998474  11.6900005341
C   0.1000000089  17.3900012970  12.7400007248
H   0.6800000668  16.0900001526  14.3300008774
H   19.9600009918  17.1499996185  14.7300004959
H   18.3500003815  16.0900001526  13.3400011063
H   19.2300014496  14.5699996948  13.7100009918
H   18.7800006866  16.0700016022  11.3000001907
H   19.7900009155  14.5900011063  11.3700008392
H   20.0000000000  18.1700000763  12.4600009918
H   1.0200001001  17.9800014496  12.8500003815
C   18.7900009155  10.7300004959  14.3500003815
C   17.7200012207  11.8100013733  14.5300006866
C   17.8400001526  12.4499998093  15.9200010300
O   19.1000003815  11.9400005341  16.3600006104
C   19.3400020599  10.5900001526  15.8800010681
H   19.6300010681  11.1499996185  13.7900009155
H   18.4700012207  9.8100004196  13.8500013351
H   16.7800006866  11.2400007248  14.4400014877
H   17.8100013733  12.5100002289  13.6900005341
H   17.1000003815  12.1100006104  16.6500015259
H   17.8700008392  13.5500001907  15.9800004959
H   18.7600002289  9.8400001526  16.4300003052
H   20.3800010681  10.2900009155  16.0200004578
C   9.8400001526  10.7300004959  17.3600006104
C   10.4500007629  10.5399999619  18.7400016785
C   9.3000011444  9.8500003815  19.4600009918
O   8.8299999237  8.9500007629  18.5000019073
C   9.0600004196  9.3800001144  17.1700019836
H   10.5599994659  10.8900012970  16.5400009155
H   9.1400003433  11.5700006485  17.3100013733
H   10.7700004578  11.5000009537  19.1600017548
H   11.3299999237  9.8800001144  18.7100009918
H   8.5300006866  10.5500011444  19.8100013733
H   9.6700010300  9.2200002670  20.2800006866
H   8.1800003052  9.3700008392  16.5300006866
H   9.7600002289  8.6500005722  16.7500000000
C   17.0400009155  16.4300003052  17.8899993896
C   17.2700004578  16.6500015259  16.3600006104
C   16.1300010681  17.5800018311  15.8500003815
O   15.2500009537  17.5800018311  16.9600009918
C   16.0799999237  17.5300006866  18.1700000763
H   17.9900016785  16.4200000763  18.4400005341
H   16.5100002289  15.4800014496  17.9700012207
H   17.3900012970  15.7200002670  15.7900009155
H   18.2100009918  17.1400012970  16.1100006104
H   15.6500005722  17.0700016022  15.0100002289
H   16.4500007629  18.6100006104  15.6600008011
H   15.3600006104  17.3700008392  18.9800014496
H   16.5800018311  18.5000019073  18.2900009155
C   6.4800000191  1.5700000525  19.4800014496
C   6.4300003052  2.4200000763  0.1400000006
C   6.6700005531  1.3199999332  1.2400000095
O   7.1500005722  0.2100000083  0.5700000525
C   7.6500005722  0.6000000238  19.8000011444
H   6.8400001526  2.0199999809  18.5500011444
H   5.5999999046  0.9500000477  19.2800006866
H   5.5100002289  3.0000000000  0.2100000083
H   7.2100000381  3.1900000572  0.2000000179
H   5.7300000191  0.9400000572  1.6400001049
H   7.3300004005  1.5800000429  2.0700001717
H   7.5399999619  20.3299999237  19.1600017548
H   8.7200002670  0.8400000334  19.8299999237
C   10.8699998856  2.9000000954  4.7000002861
C   9.8900003433  2.3200001717  3.6400003433
C   8.9200000763  3.5100002289  3.2599999905
O   9.3200006485  4.5200004578  4.1400003433
C   10.6500005722  4.3500003815  4.5800004005
H   11.9200000763  2.6200003624  4.5300002098
H   10.5300006866  2.6300001144  5.7000007629
H   9.3000011444  1.4700000286  4.0000000000
H   10.4300012589  2.0700001717  2.7100002766
H   7.9099998474  3.1600000858  3.4800002575
H   8.9700002670  3.9800002575  2.2600002289
H   10.9100008011  4.8299999237  5.5300002098
H   11.3299999237  4.7900004387  3.8300001621
C   7.6000003815  5.5999999046  6.9600005150
C   7.7600002289  5.0300002098  8.4800004959
C   9.1200008392  5.7300000191  8.9500007629
O   9.6100006104  6.2800002098  7.7200002670
C   8.4500007629  6.8800001144  7.0200004578
H   6.5300006866  5.8100004196  6.8000001907
H   7.8800005913  4.8600001335  6.2100005150
H   7.7900004387  3.9400002956  8.5300006866
H   7.0100002289  5.2600002289  9.2399997711
H   9.8600006104  5.0500001907  9.4000005722
H   8.8100004196  6.5300006866  9.6400003433
H   8.8100004196  7.2100000381  6.0300006866
H   8.0500011444  7.6300001144  7.7100000381
C   0.7400000095  4.8000001907  9.4300003052
C   1.7100000381  4.4300003052  8.2300004959
C   1.1900000572  5.2500004768  7.0400004387
O   0.0100000007  5.8100004196  7.5100002289
C   0.1200000048  6.0800004005  8.9099998474
H   1.3100001812  4.8200001717  10.3600006104
H   0.0200000014  3.9700002670  9.4900007248
H   1.6600000858  3.3600001335  7.9700002670
H   2.7400002480  4.8000001907  8.3000001907
H   1.0600000620  4.6900000572  6.1000003815
H   1.8600000143  6.1100001335  6.9000005722
H   19.7500019073  6.3299999237  9.3000011444
H   0.7900000215  6.9500007629  8.9500007629
C   16.3600006104  20.3700027466  6.0500001907
C   14.9600009918  0.2900000215  6.3200001717
C   14.1200008392  19.9500007629  5.3900003433
O   14.8500003815  18.7400016785  5.5600004196
C   16.2100009918  19.0699996948  5.2799997330
H   16.9600009918  20.2000007629  6.9500007629
H   16.9800014496  0.4100000262  5.4300003052
H   14.7900009155  1.3500000238  6.1000003815
H   14.7200012207  0.1500000060  7.3800001144
H   14.1300010681  20.2100009918  4.3200001717
H   13.0800008774  19.7800006866  5.7000007629
H   16.3200016022  19.3500003815  4.2200002670
H   16.8100013733  18.2400016785  5.6700000763
C   14.5400009155  1.6200000048  16.8300018311
C   14.0700006485  3.0100002289  16.3300018311
C   12.6100006104  2.6000001431  16.2200012207
O   12.5700006485  1.3100001812  15.5100011826
C   13.8000011444  0.6000000238  15.8800010681
H   14.4400014877  1.3300000429  17.8800010681
H   15.6200008392  1.4400000572  16.7200012207
H   14.3900003433  3.3500001431  15.3400001526
H   14.1800012589  3.8400001526  17.0400009155
H   12.0300006866  3.3600001335  15.6900014877
H   12.1000003815  2.4600000381  17.1800003052
H   14.3300008774  0.5800000429  14.9200010300
H   13.5799999237  20.2299995422  16.3100013733
C   19.4300003052  10.3400001526  19.7299995422
C   18.7300014496  9.3200006485  0.0500000045
C   19.9400005341  8.8699998856  0.8800000548
O   0.4000000358  8.7900009155  20.5000019073
C   0.1500000060  9.7899999619  19.4900016785
H   19.5100002289  11.3600006104  20.1300010681
H   18.8000011444  10.3600006104  18.8400001526
H   18.2200012207  8.5300006866  20.1000003815
H   17.8700008392  9.7700004578  0.5600000024
H   19.8500022888  7.8600001335  1.3000000715
H   20.1000003815  9.6200008392  1.6700000763
H   0.2800000012  9.3400001526  18.5000019073
H   0.9000000358  10.5900001526  19.5900001526
C   3.4900000095  18.9099998474  14.9800004959
C   4.8800001144  18.9000015259  15.7700004578
C   4.5800004005  17.9100017548  17.0000000000
O   3.2000002861  17.4600009918  16.7100009918
C   2.5000000000  18.5200004578  16.0900001526
H   3.5300002098  18.1800003052  14.1700000763
H   3.1400001049  19.8400001526  14.5100011826
H   5.2500004768  19.8900012970  16.0499992371
H   5.5900001526  18.4700012207  15.0600004196
H   4.5999999046  18.3800010681  17.9900016785
H   5.2699999809  17.0600013733  17.0700016022
H   2.3200001717  19.3100013733  16.8400020599
H   1.5499999523  18.1600017548  15.6900014877
C   17.8500003815  6.5600004196  17.9100017548
C   18.1000003815  5.5800004005  19.0500011444
C   17.4900016785  4.2800002098  18.4099998474
O   17.5600013733  4.5100002289  16.9800014496
C   18.2500000000  5.7500004768  16.7399997711
H   18.3800010681  7.5200004578  18.0500011444
H   16.8100013733  6.8700003624  17.7500000000
H   17.4400005341  5.9100003242  19.8600006104
H   19.1500015259  5.4200005531  19.3199996948
H   16.4800014496  4.0600004196  18.7700004578
H   18.0800018311  3.3900001049  18.6900005341
H   17.8199996948  6.1500000954  15.8199996948
H   19.3100013733  5.5700006485  16.5100002289
C   19.1900024414  16.0000000000  7.0300002098
C   19.8000011444  14.8400011063  7.8900003433
C   0.6599999666  15.3600006104  8.2300004959
O   0.9900000691  16.3300018311  7.2700004578
C   20.3899993896  17.0600013733  7.0000004768
H   18.3100013733  16.5400009155  7.3900003433
H   18.9300003052  15.7500000000  5.9900002480
H   19.9000015259  13.9200010300  7.3000001907
H   19.2500000000  14.6400012970  8.8100004196
H   1.4900000095  14.6400012970  8.2700004578
H   0.6299999952  15.7700004578  9.2500009537
H   20.4800014496  17.5100002289  6.0000000000
H   20.2800006866  17.8800010681  7.7200002670
C   8.6400003433  5.1000003815  16.3600006104
C   8.7900009155  3.5399999619  16.6900005341
C   9.6300010681  3.5900001526  18.0200004578
O   10.4600000381  4.7200002670  17.8300018311
C   9.6400003433  5.7800002098  17.3700008392
H   7.5799999237  5.3600001335  16.4600009918
H   8.8800010681  5.3400001526  15.3100004196
H   9.2500009537  2.9200003147  15.9200010300
H   7.8000001907  3.1400001049  16.8800010681
H   10.2299995422  2.6800000668  18.1600017548
H   9.0600004196  3.9100003242  18.9000015259
H   10.2799997330  6.5700001717  16.9600009918
H   9.0500001907  6.1700005531  18.2100009918
C   3.4500002861  9.6200008392  18.0200004578
C   4.6400003433  9.2399997711  17.0900001526
C   4.9400000572  7.8200006485  17.5400009155
O   3.6800003052  7.2100000381  17.5700016022
C   2.6900002956  8.2200002670  18.0300006866
H   2.8300001621  10.4700002670  17.7300014496
H   3.8000001907  9.8200006485  19.0400009155
H   5.5600004196  9.8400001526  17.1300010681
H   4.2200002670  9.1800003052  16.0799999237
H   5.2000002861  7.7900004387  18.6000022888
H   5.5999999046  7.2700004578  16.8500003815
H   2.3400001526  7.9099998474  19.0200004578
H   1.8200001717  8.1900005341  17.3600006104
C   12.3200016022  14.7500000000  3.2100000381
C   11.7700004578  15.0500011444  1.8600000143
C   12.3600006104  14.0100002289  0.9400000572
O   12.1199998856  12.8700008392  1.7300000191
C   12.4200010300  13.2500000000  3.0999999046
H   11.6400003433  15.1200008392  3.9900002480
H   13.2900009155  15.2200012207  3.4000000954
H   11.9800004959  16.0700016022  1.5499999523
H   10.6700000763  14.9600009918  1.8300001621
H   13.4300003052  14.1400003433  0.7300000787
H   11.7600002289  13.7700004578  0.0500000045
H   13.3699998856  12.7800006866  3.3900001049
H   11.6599998474  12.8700008392  3.7899999619
C   19.5200004578  20.1400012970  17.2800006866
C   18.2300014496  0.3700000048  17.3800010681
C   18.3600006104  0.6700000167  18.8600006104
O   18.8400001526  20.0900001526  19.5400009155
C   19.6200008392  19.3600006104  18.6300010681
H   20.3400020599  0.1800000072  16.9900016785
H   19.4000015259  19.3900012970  16.4899997711
H   17.3200016022  20.3800010681  17.4000015259
H   18.2100009918  1.1100001335  16.5699996948
H   17.4099998474  0.9800000191  19.3199996948
H   19.0000000000  1.5100001097  19.1600017548
H   19.2300014496  18.3400001526  18.4900016785
H   20.5700016022  19.1500015259  19.1399993896
C   2.7000000477  9.2500009537  3.3299999237
C   1.8600000143  8.0100002289  3.2200002670
C   2.9100000858  6.9300003052  3.3900001049
O   3.7699999809  7.4500007629  4.4000000954
C   3.7000000477  8.9200000763  4.4400005341
H   2.1000001431  10.1700010300  3.4000000954
H   3.2300000191  9.3400001526  2.3700001240
H   1.3000000715  7.9800004959  2.2800002098
H   1.1300001144  7.9800004959  4.0399999619
H   3.5500001907  6.8700003624  2.5000000000
H   2.4700000286  5.9400005341  3.6100003719
H   4.7400002480  9.2600002289  4.3200001717
H   3.3700001240  9.2399997711  5.4400005341
C   9.6100006104  19.9200019836  15.3700008392
C   9.2899999619  0.4400000274  14.4200000763
C   7.8600001335  0.8400000334  14.9100008011
O   7.8900003433  0.6599999666  16.3700008392
C   8.5900001526  20.0300006866  16.5200004578
H   10.6500005722  20.0900001526  15.6600008011
H   9.6300010681  18.9000015259  14.9600009918
H   9.2399997711  20.6200008392  13.4100008011
H   10.0900001526  1.1800000668  14.3600006104
H   7.1700000763  0.1500000060  14.4100008011
H   7.6200003624  1.8900001049  14.7300004959
H   7.8800005913  19.2000007629  16.3800010681
H   9.0200004578  20.0300006866  17.5200004578
C   13.1600008011  8.2000007629  16.9400005341
C   13.9600000381  9.4100008011  16.5300006866
C   14.5400009155  9.0000000000  15.1200008392
O   13.6400012970  8.0000000000  14.6700010300
C   13.4000005722  7.2100000381  15.7900009155
H   12.0900011063  8.4700002670  16.9400005341
H   13.4300003052  7.7699999809  17.9100017548
H   14.7500000000  9.5500001907  17.2700004578
H   13.3199996948  10.3000011444  16.5000000000
H   15.5600013733  8.6000003815  15.0700006485
H   14.5699996948  9.8100004196  14.3800010681
H   14.3600006104  6.6800003052  15.8700008392
H   12.6599998474  6.4500002861  15.5399999619
C   1.9700001478  12.9600000381  12.3400011063
C   3.4300003052  12.5900001526  12.6500015259
C   3.1700000763  11.4600000381  13.6900005341
O   1.8400001526  11.7700004578  14.1900005341
C   1.4600001574  13.0700006485  13.7600002289
H   1.5300000906  12.1600008011  11.7500009537
H   1.8900001049  13.8900003433  11.7700004578
H   3.9800002575  13.3699998856  13.1900005341
H   4.0000000000  12.3000001907  11.7600002289
H   3.9200000763  11.4900007248  14.4800004959
H   3.1800003052  10.4600000381  13.2400016785
H   1.9300000668  13.9000015259  14.3000011444
H   0.3700000048  13.1600008011  13.8000011444
C   15.2200012207  13.8500013351  7.2500000000
C   15.0100002289  15.0000009537  6.2600002289
C   15.8000001907  14.5000000000  4.9200000763
O   16.0600013733  13.1200008392  5.2300000191
C   16.3400001526  12.9800014496  6.6100001335
H   14.2899999619  13.2900009155  7.4100008011
H   15.4500007629  14.2399997711  8.2500000000
H   15.4800014496  15.9100008011  6.6500000954
H   13.9900007248  15.2800006866  5.9800004959
H   16.7399997711  15.0000009537  4.6500005722
H   15.2300014496  14.6199998856  3.9900002480
H   17.3100013733  13.4500007629  6.8300004005
H   16.3700008392  11.9600009918  6.9900007248
C   15.0400009155  10.5399999619  1.6299999952
C   14.7000007629  9.0200004578  1.4900000095
C   13.9700012207  8.9600000381  0.1500000060
O   14.6800003052  9.9200000763  20.0200004578
C   14.6500005722  11.0500001907  0.2000000179
H   16.0799999237  10.8500003815  1.7600001097
H   14.4400014877  10.9900007248  2.4300000668
H   14.0200004578  8.6400003433  2.2600002289
H   15.5500011444  8.3400001526  1.4600001574
H   12.9300012589  9.2800006866  0.2800000012
H   14.0200004578  7.9800004959  20.2600002289
H   13.7100009918  11.6200008392  0.1900000125
H   15.3600006104  11.7500009537  20.3500003815
C   6.6100001335  15.4400005341  10.8699998856
C   7.1199998856  16.7600021362  11.4600000381
C   5.8800001144  17.2400016785  12.1600008011
O   4.8200001717  16.3700008392  11.7899999619
C   5.1200003624  15.8300008774  10.5100002289
H   6.7899999619  14.5200004578  11.4400005341
H   7.1500005722  15.1900005341  9.9600009918
H   7.3900003433  17.4500007629  10.6500005722
H   8.0000000000  16.6700000763  12.1000003815
H   5.6300001144  18.2500000000  11.8200006485
H   5.9800004959  17.2299995422  13.2600011826
H   5.0399999619  16.6000003815  9.7400007248
H   4.4900002480  14.9600009918  10.2600002289
C   13.8500013351  0.0800000057  10.5800008774
C   13.3800010681  0.2800000012  12.0300006866
C   12.2500000000  19.8900012970  12.1100006104
O   11.8500003815  19.8299999237  10.7300004959
C   12.9099998474  19.6300010681  9.9300003052
H   14.9000015259  20.3800010681  10.6600008011
H   13.9099998474  1.0800000429  10.1300001144
H   13.0500011444  1.3000000715  12.2200002670
H   14.2300014496  0.1800000072  12.7100000381
H   11.3900003433  20.1800003052  12.7100000381
H   12.5000000000  18.8600006104  12.3900012970
H   12.6400003433  19.8600006104  8.8900003433
H   13.2600011826  18.6000022888  10.0600004196
C   5.8500003815  6.7600007057  0.3499999940
C   6.4700002670  5.9800004959  1.5499999523
C   7.0500001907  7.1300005913  2.4600000381
O   7.2400002480  8.2600002289  1.6299999952
C   6.9600005150  7.8800005913  0.3000000119
H   4.8500003815  7.1600003242  0.5700000525
H   5.7800002098  6.0200004578  20.1500015259
H   7.3000001907  5.3300004005  1.2699999809
H   5.7200002670  5.4000000954  2.1000001431
H   8.0300006866  6.8300004005  2.8600001335
H   6.3600006104  7.3000001907  3.3000001907
H   7.9600005150  7.5500006676  0.0000000000
H   6.6700005531  8.7000007629  20.2500000000
C   12.3700008392  9.6700010300  4.4400005341
C   10.8400011063  9.3700008392  4.6300001144
C   10.5000009537  10.1700010300  5.8900003433
O   11.5200004578  11.1300001144  5.9600000381
C   12.7100000381  10.4700002670  5.7100005150
H   12.5100002289  10.1300001144  3.4500002861
H   12.8800010681  8.7100009918  4.5300002098
H   10.6300010681  8.3100004196  4.7800002098
H   10.3299999237  9.6800003052  3.7100002766
H   10.5100002289  9.4700002670  6.7300004959
H   9.5699996948  10.7300004959  5.7500004768
H   12.9400005341  9.9000005722  6.6200008392
H   13.5300006866  11.1600008011  5.5100002289
C   1.9800001383  10.4600000381  7.4800004959
C   1.2599999905  11.1499996185  8.6800003052
C   0.9800000191  9.8299999237  9.5200004578
O   2.3099999428  9.2200002670  9.5800008774
C   2.8200001717  9.3100004196  8.2000007629
H   2.6600000858  11.1300001144  6.9500007629
H   1.2900000811  9.9500007629  6.8000001907
H   0.3700000048  11.6300010681  8.2500000000
H   1.7699999809  11.9899997711  9.1700000763
H   0.2300000191  9.1300001144  9.1400003433
H   0.6500000358  10.0000000000  10.5500011444
H   2.7400002480  8.3100004196  7.7400007248
H   3.9000000954  9.4300003052  8.3100004196
C   3.2700002193  19.2800006866  8.9099998474
C   2.2600002289  20.4300003052  8.6400003433
C   1.1300001144  20.0300006866  9.6599998474
O   1.8200001717  19.4900016785  10.7800006866
C   2.7500000000  18.5900001526  10.2100000381
H   4.3100004196  19.5900001526  9.0200004578
H   3.2599999905  18.5600013733  8.0799999237
H   1.9300000668  20.5200004578  7.6000003815
H   2.7000000477  0.7900000215  8.8600006104
H   0.5500000119  19.1900024414  9.2500009537
H   0.6200000048  0.2700000107  10.1000003815
H   2.2300000191  17.6300010681  10.0900001526
H   3.5000002384  18.5200004578  11.0100002289
C   18.3000011444  9.8200006485  5.3200001717
C   18.2000007629  9.3299999237  6.8100004196
C   17.2500000000  8.1100006104  6.5600004196
O   16.4200000763  8.4200010300  5.4500002861
C   16.7800006866  9.7200002670  4.8700003624
H   18.9300003052  9.1000003815  4.7800002098
H   18.6700019836  10.8600006104  5.3300004005
H   17.7300014496  10.1000003815  7.4400000572
H   19.1200008392  9.1300001144  7.3600006104
H   16.5800018311  7.8000001907  7.3700003624
H   17.9300003052  7.2900004387  6.2899999619
H   16.1000022888  10.4300012589  5.3500003815
H   16.6900005341  9.7100009918  3.7699999809
C   10.0500001907  3.2900002003  11.8900003433
C   11.0100002289  3.8800001144  12.8900003433
C   11.9100008011  4.4600000381  11.7899999619
O   12.1400012970  3.3600001335  10.8699998856
C   10.8699998856  2.6100001335  10.8699998856
H   9.4500007629  4.0600004196  11.4099998474
H   9.4200000763  2.5500001907  12.3999996185
H   11.5299997330  3.2100000381  13.5900011063
H   10.6300010681  4.7000002861  13.5100002289
H   12.8400001526  4.8500003815  12.2300004959
H   11.5100002289  5.3000001907  11.2100009918
H   10.9600009918  1.5200001001  10.8800010681
H   10.3299999237  2.7600002289  9.9200000763
C   12.3900012970  5.5100002289  0.1000000089
C   11.2800006866  6.5199999809  0.0200000014
C   10.9200000763  6.6400003433  1.5400002003
O   12.2400007248  6.7200002670  2.1500000954
C   13.0800008774  5.7800002098  1.4300000668
H   13.1000003815  5.4700002670  19.8800010681
H   11.9800004959  4.5000000000  0.2100000083
H   10.4200000763  6.1100001335  20.0900001526
H   11.5800008774  7.4500007629  20.1400012970
H   10.4300012589  5.7399997711  1.9200000763
H   10.3500003815  7.5600004196  1.6600000858
H   13.0800008774  4.9200000763  2.1100001335
H   14.0800008774  6.2300004959  1.2900000811
C   17.1400012970  5.8400006294  10.8000001907
C   15.9200010300  6.6400003433  10.3299999237
C   15.7400016785  7.6500005722  11.4900007248
O   17.0799999237  8.0200004578  11.7899999619
C   17.8300018311  6.7700004578  11.8700008392
H   17.7700004578  5.5600004196  9.9500007629
H   16.7600021362  4.9600000381  11.3299999237
H   15.0500011444  5.9800004959  10.3500003815
H   16.0400009155  7.0600004196  9.3200006485
H   15.2800006866  7.2500000000  12.3999996185
H   15.2300014496  8.5399999619  11.1000003815
H   17.8600006104  6.4700002670  12.9200000763
H   18.8900012970  6.9600005150  11.6700000763
C   12.0500001907  14.1300010681  13.7200012207
C   11.9300003052  14.5500001907  12.2600002289
C   12.7200012207  15.8600006104  12.4100008011
O   13.8600006104  15.4899997711  13.1900005341
C   13.5300006866  14.4000005722  13.9800014496
H   11.8600006104  13.0500011444  13.8200006485
H   11.3100004196  14.6400012970  14.3500003815
H   10.8900012970  14.7200012207  12.0000000000
H   12.3100004196  13.8500013351  11.5000009537
H   12.0900011063  16.6500015259  12.8500003815
H   13.0200004578  16.2600002289  11.4400005341
H   13.7800006866  14.6800003052  15.0200004578
H   14.2200002670  13.6000003815  13.7000007629
C   15.7700004578  11.6400003433  11.2700004578
C   16.6000003815  11.1000003815  10.0100002289
C   17.7399997711  12.0800008774  10.0200004578
O   17.0500011444  13.3600006104  10.2400007248
C   16.0300006866  13.1700000763  11.2300004959
H   16.0900001526  11.1600008011  12.2000007629
H   14.7100009918  11.3500013351  11.2500000000
H   15.9800004959  11.2800006866  9.1300001144
H   16.9400005341  10.0799999237  10.1900005341
H   18.3100013733  12.1300010681  9.0900001526
H   18.4600009918  11.9300003052  10.8400011063
H   15.1400003433  13.7000007629  10.8600006104
H   16.4300003052  13.6100006104  12.1400012970
C   12.9500007629  5.7200002670  7.6700000763
C   13.6600008011  6.5199999809  6.5300006866
C   14.7100009918  5.4700002670  6.0400004387
O   13.9000015259  4.2699999809  5.9300003052
C   13.1300010681  4.1900005341  7.1500005722
H   11.8700008392  5.9100003242  7.6700000763
H   13.3500003815  5.8200001717  8.6900005341
H   13.9900007248  7.5200004578  6.8200006485
H   12.8900003433  6.6900005341  5.7700004578
H   15.4500007629  5.3900003433  6.8400001526
H   15.1200008392  5.7100005150  5.0600004196
H   13.8100004196  3.7000000477  7.8700008392
H   12.2200002670  3.5900001526  7.0500001907
C   6.9100003242  12.7000007629  14.0100002289
C   6.5000004768  14.0900001526  14.5500001907
C   7.9700002670  14.6500005722  14.9400005341
O   8.8600006104  13.5200014114  14.8500003815
C   8.4500007629  12.7600002289  13.7600002289
H   6.3800001144  12.5799999237  13.0600013733
H   6.5600004196  11.9200000763  14.7100009918
H   5.9100003242  14.0700006485  15.4800014496
H   6.0500001907  14.7600002289  13.8000011444
H   7.9800004959  15.2200012207  15.8700008392
H   8.3800010681  15.2700004578  14.1300010681
H   8.6900005341  11.6900005341  13.8600006104
H   8.8699998856  13.2000007629  12.8500003815
C   5.6500000954  17.4000015259  6.0100002289
C   4.7700004578  16.3000011444  5.4300003052
C   5.8000001907  15.2800006866  4.9000000954
O   7.0100002289  15.5200004578  5.6800003052
C   6.7899999619  16.5600013733  6.6100001335
H   5.0799999237  18.0100021362  6.7100000381
H   6.0300006866  18.0600013733  5.2200002670
H   4.1300001144  16.7500000000  4.6600003242
H   4.1900005341  15.8400011063  6.2400002480
H   5.9200000763  15.3400001526  3.8100001812
H   5.4900002480  14.2399997711  5.0700001717
H   7.7699999809  17.0500011444  6.7200002670
H   6.5400004387  16.1000022888  7.5799999237
