832
snapshot_id=pure_thf_r2_t12400ps source_time_ps=12400.000000
C   5.2699999809  13.2600011826  2.6500000954
C   5.7500004768  14.8000001907  2.7400002480
C   7.1199998856  14.7000007629  1.9800001383
O   7.4200005531  13.2900009155  1.8400001526
C   6.1999998093  12.6400003433  1.5499999523
H   4.1800003052  13.1800003052  2.6500000954
H   5.4500002861  12.6900005341  3.5599999428
H   5.8699998856  15.0700006485  3.7899999619
H   5.0700001717  15.5399999619  2.2999999523
H   7.9800004959  15.0600004196  2.5500001907
H   7.0100002289  15.2200012207  1.0200001001
H   6.3900003433  11.5700006485  1.6700000763
H   5.8900003433  12.9099998474  0.5300000310
C   18.3800010681  1.5700000525  12.1900005341
C   18.4700012207  0.0500000045  12.4900007248
C   17.6200008392  20.0500011444  11.3100004196
O   16.5800018311  0.3800000250  11.0799999237
C   16.8500003815  1.6900001764  11.7899999619
H   19.1100006104  1.8500000238  11.4300003052
H   18.5100002289  2.2200002670  13.0600013733
H   18.2300014496  20.4000015259  13.5300006866
H   19.5400009155  20.4400024414  12.4700012207
H   17.1700019836  19.0500011444  11.3600006104
H   18.3000011444  20.1400012970  10.4500007629
H   16.1800003052  1.6600000858  12.6599998474
H   16.6300010681  2.5500001907  11.1499996185
C   2.3500001431  7.9300003052  3.2599999905
C   2.8699998856  8.9400005341  2.2000000477
C   2.0900001526  8.5300006866  0.9500000477
O   1.0500000715  7.5399999619  1.3000000715
C   1.5600000620  6.8600006104  2.5000000000
H   1.7600001097  8.5100002289  3.9800002575
H   3.0500001907  7.4700002670  3.9800002575
H   3.9600002766  8.9900007248  2.0900001526
H   2.4900002480  9.9200000763  2.5000000000
H   2.7400002480  8.0900001526  0.1900000125
H   1.7200000286  9.4200000763  0.4300000072
H   2.2999999523  6.1800003052  2.0700001717
H   0.7800000310  6.3700003624  3.0900001526
C   18.2500000000  1.5700000525  7.2000002861
C   18.8700008392  2.5699999332  8.2600002289
C   20.3500003815  2.2900002003  8.0399999619
O   20.4300003052  2.2200002670  6.6000003815
C   19.2100009918  1.7000000477  6.0400004387
H   17.2400016785  2.0000000000  7.0799999237
H   18.1800003052  0.5300000310  7.5300002098
H   18.4600009918  2.4100000858  9.2600002289
H   18.6000022888  3.5900001526  7.9400005341
H   0.0700000003  1.2900000811  8.3699998856
H   0.3700000048  3.1200001240  8.4000005722
H   19.4400005341  0.7200000286  5.6100006104
H   18.9600009918  2.4800000191  5.3100004196
C   16.4600009918  9.6500005722  10.8500003815
C   16.7900009155  10.5399999619  9.5800008774
C   16.3700008392  9.4900007248  8.4800004959
O   16.2900009155  8.2200002670  9.1300001144
C   15.6800003052  8.4200010300  10.3600006104
H   15.8199996948  10.1500015259  11.5900001526
H   17.4500007629  9.4800004959  11.2800006866
H   17.8800010681  10.6600008011  9.4800004959
H   16.3800010681  11.5400009155  9.4500007629
H   17.1100006104  9.4100008011  7.6800003052
H   15.4000005722  9.6700010300  8.0100002289
H   15.8700008392  7.5799999237  11.0300006866
H   14.6199998856  8.6500005722  10.1700010300
C   5.4200005531  8.7700004578  11.7600002289
C   4.4200000763  9.6599998474  12.5799999237
C   3.6600003242  8.5600004196  13.3100013733
O   4.6600003242  7.6000003815  13.6700010300
C   5.6100006104  7.4500007629  12.6100006104
H   6.3500003815  9.2800006866  11.5000009537
H   4.9400000572  8.4000005722  10.8400011063
H   3.8200001717  10.3400001526  11.9700002670
H   5.0200004578  10.2200012207  13.3100013733
H   2.9500002861  8.0799999237  12.6200008392
H   3.0700001717  8.8699998856  14.1800012589
H   5.4800004959  6.6300005913  11.8900003433
H   6.6200008392  7.2900004387  13.0300006866
C   3.5700001717  3.8900003433  11.7200002670
C   2.2400000095  3.1600000858  11.9800004959
C   2.7100002766  1.7400001287  12.0200004578
O   3.5800001621  1.6500000954  10.8199996948
C   4.3000001907  2.9400000572  10.7600011826
H   4.1400003433  3.9100003242  12.6599998474
H   3.3900001049  4.9300003052  11.4300003052
H   1.3999999762  3.3600001335  11.3100004196
H   1.8400001526  3.4100003242  12.9700002670
H   1.8700001240  1.0500000715  11.9000005722
H   3.3400001526  1.6100001335  12.9000005722
H   4.2500000000  3.2900002003  9.7200002670
H   5.3500003815  2.7100002766  10.9900007248
C   7.7699999809  11.5800008774  12.3500003815
C   6.5100002289  12.4800004959  12.1800003052
C   6.1100001335  12.3900012970  10.7399997711
O   6.9200000763  11.4700012207  10.1599998474
C   8.2200002670  11.4300003052  10.8400011063
H   7.5399999619  10.5399999619  12.6200008392
H   8.6200008392  11.9200000763  12.9500007629
H   6.7800002098  13.5000000000  12.4499998093
H   5.7100005150  12.2500000000  12.8900003433
H   6.2899999619  13.3300008774  10.2000007629
H   5.0200004578  12.2900009155  10.6300010681
H   8.8500003815  12.2700014114  10.5500011444
H   8.6100006104  10.4300012589  10.5900001526
C   11.1600008011  11.4200010300  19.1399993896
C   11.1999998093  10.3200006485  20.2000007629
C   11.2300004959  11.1900005341  0.8899999857
O   11.8300008774  12.4300003052  0.4800000191
C   11.1700010300  12.7299995422  19.9000015259
H   10.2500009537  11.3500013351  18.5300006866
H   12.0600013733  11.3800001144  18.5200004578
H   12.0800008774  9.6900005341  20.0300006866
H   10.3200006485  9.6700010300  20.1000003815
H   11.7600002289  10.7200002670  1.7300000191
H   10.2200012207  11.4300003052  1.2699999809
H   11.7899999619  13.4500007629  19.3500003815
H   10.2000007629  13.2100009918  20.0900001526
C   19.7000007629  10.8500003815  16.4899997711
C   0.3299999833  10.4200000763  15.7400016785
C   20.4899997711  10.0900001526  14.3000011444
O   19.0600013733  9.7500000000  14.4700002670
C   18.5799999237  10.7700004578  15.3900003433
H   19.9200019836  11.8100013733  16.9600009918
H   19.4100017548  10.1500015259  17.2800006866
H   0.6299999952  9.4700002670  16.2000007629
H   1.1499999762  11.1300001144  15.7900009155
H   0.4600000381  9.2399997711  13.8900003433
H   20.5400009155  10.9800004959  13.6600008011
H   17.5900001526  10.5800008774  15.8300008774
H   18.5500011444  11.7200002670  14.8299999237
C   15.6900014877  12.8800010681  6.9800000191
C   14.2300014496  13.1200008392  7.3700003624
C   13.7700004578  14.2800006866  6.5000004768
O   14.8900012970  14.5000000000  5.5500001907
C   15.6400012970  13.2400016785  5.5000000000
H   16.0600013733  11.8700008392  7.1900005341
H   16.2800006866  13.5900011063  7.5700001717
H   14.2800006866  13.3300008774  8.4400005341
H   13.5799999237  12.2600002289  7.1900005341
H   13.5500001907  15.2000007629  7.0500001907
H   12.8200006485  14.0800008774  6.0000000000
H   16.6100006104  13.4800004959  5.0399999619
H   15.1100006104  12.4800004959  4.9200000763
C   10.5200004578  1.5400002003  4.0500001907
C   9.8500003815  2.0700001717  5.3400001526
C   10.8100013733  1.6400001049  6.5199999809
O   12.0000000000  1.2000000477  5.7700004578
C   11.4799995422  0.5600000024  4.5400004387
H   11.0500001907  2.3500001431  3.5399999619
H   9.8800001144  1.1300001144  3.2700002193
H   8.8299999237  1.6900001764  5.4099998474
H   9.8700008392  3.1700000763  5.2699999809
H   10.4899997711  0.7700001001  7.1000003815
H   11.0799999237  2.5100002289  7.1400003433
H   10.9100008011  20.2500000000  4.7900004387
H   12.2600002289  0.4200000167  3.7800002098
C   16.9700012207  12.0100011826  2.0000000000
C   15.5300006866  12.6000013351  1.7900000811
C   14.7300004959  11.3200006485  1.4100000858
O   15.6400012970  10.1599998474  1.5400002003
C   16.7000007629  10.5800008774  2.4200000763
H   17.5500011444  12.6400003433  2.6800000668
H   17.4799995422  12.1000003815  1.0300000906
H   15.4100017548  13.4100008011  1.0700000525
H   15.1000013351  13.0300006866  2.7000000477
H   14.3100013733  11.4700012207  0.4000000358
H   14.0000009537  11.2200012207  2.2300000191
H   17.5600013733  9.9400005341  2.2000000477
H   16.3000011444  10.4899997711  3.4300003052
C   19.8200016022  5.8699998856  19.7600002289
C   19.6900005341  6.9000005722  18.5799999237
C   18.9400005341  8.0100002289  19.3300018311
O   17.9700012207  7.3099999428  20.0600013733
C   18.8000011444  6.3700003624  0.2000000179
H   0.2200000137  5.8400006294  20.2200012207
H   19.5400009155  4.8600001335  19.4200019836
H   19.1700000763  6.5100002289  17.7000007629
H   0.0300000012  7.3300004005  18.2100009918
H   18.4200019836  8.7600002289  18.7200012207
H   19.6700019836  8.4800004959  20.0000000000
H   18.1300010681  5.5800004005  0.5700000525
H   19.3000011444  6.8700003624  1.0399999619
C   7.4600005150  14.4900016785  18.5000019073
C   8.0500011444  14.2800006866  17.1200008392
C   7.5000004768  15.5300006866  16.3400001526
O   6.2400002480  15.7400016785  16.9500007629
C   6.1600008011  15.1400003433  18.2600002289
H   8.0500011444  15.0799999237  19.2000007629
H   7.3500003815  13.5400009155  19.0400009155
H   7.8200006485  13.2600011826  16.8100013733
H   9.1400003433  14.2399997711  17.0799999237
H   7.2500000000  15.2800006866  15.3000011444
H   8.1700000763  16.4000015259  16.3300018311
H   5.3000001907  14.4600009918  18.3000011444
H   6.1900000572  15.9700012207  18.9800014496
C   2.9500002861  20.2900009155  5.9500002861
C   2.8900001049  0.3900000155  7.3300004005
C   3.3000001907  1.7699999809  6.8100004196
O   4.4700002670  1.4800000191  6.0800004005
C   4.2600002289  0.2599999905  5.3400001526
H   2.0400002003  20.4700012207  5.3699998856
H   2.9600000381  19.1900024414  6.0100002289
H   3.5300002098  20.5300025940  8.1000003815
H   1.8400001526  0.4200000167  7.6400003433
H   3.4900000095  2.4500000477  7.6500005722
H   2.5699999332  2.1800000668  6.1000003815
H   5.1200003624  20.2100009918  5.5300002098
H   4.1800003052  0.4700000286  4.2600002289
C   16.0400009155  2.2100000381  4.0700001717
C   16.9600009918  1.7699999809  2.9300000668
C   16.6000003815  2.6900002956  1.7699999809
O   15.1400003433  2.9300000668  2.0300002098
C   14.7400007248  2.4300000668  3.2900002003
H   16.3000011444  3.2400000095  4.3500003815
H   16.0499992371  1.6500000954  5.0200004578
H   16.8199996948  0.7600000501  2.5300002098
H   18.0300006866  1.8700001240  3.1500003338
H   16.7800006866  2.2300000191  0.7900000215
H   17.0400009155  3.7000000477  1.8100000620
H   14.0800008774  1.5600000620  3.2599999905
H   14.1400003433  3.1800003052  3.8200001717
C   4.4500002861  3.2100000381  2.5800001621
C   4.3600001335  3.9900002480  1.2400000095
C   5.5100002289  5.0300002098  1.3000000715
O   6.0400004387  4.9500002861  2.6100001335
C   5.9400005341  3.5599999428  3.0200002193
H   4.3900003433  2.1200001240  2.4800000191
H   3.6400003433  3.5100002289  3.2500002384
H   3.3500001431  4.3699998856  1.1000000238
H   4.6400003433  3.3700001240  0.3800000250
H   5.1000003815  6.0400004387  1.1400001049
H   6.2800002098  4.9000000954  0.5300000310
H   6.1300001144  3.3900001049  4.0900001526
H   6.7200002670  2.9700002670  2.5500001907
C   3.9900002480  19.0200004578  18.4600009918
C   5.4500002861  18.7200012207  18.9700012207
C   5.8000001907  20.2100009918  19.4300003052
O   4.5800004005  20.5599994659  20.2100009918
C   3.5100002289  20.2800006866  19.3100013733
H   3.2800002098  18.2200012207  18.7000007629
H   4.0700001717  19.1800003052  17.3800010681
H   6.0300006866  18.3100013733  18.1400012970
H   5.3699998856  18.0900020599  19.8600006104
H   6.1100001335  0.3900000155  18.7200012207
H   6.6200008392  20.1200008392  20.1599998474
H   3.3299999237  0.5700000525  18.6900005341
H   2.5100002289  20.1100006104  19.7400016785
C   5.2799997330  19.4400005341  14.2800006866
C   5.8000001907  19.8900012970  12.8500003815
C   6.7000002861  18.6599998474  12.5000000000
O   6.9400000572  17.9900016785  13.7200012207
C   5.7200002670  18.0000000000  14.5100011826
H   4.2300000191  19.7200012207  14.3800010681
H   5.7600002289  20.0200004578  15.0799999237
H   6.4000005722  0.2000000179  12.9300012589
H   5.0600004196  20.0600013733  12.0600013733
H   7.6500005722  19.0900001526  12.1500005722
H   6.1700005531  18.0300006866  11.7800006866
H   5.9100003242  17.9000015259  15.5800008774
H   5.1000003815  17.1900005341  14.0900001526
C   14.9100008011  3.7100002766  8.8400001526
C   14.4000005722  4.5400004387  10.0900001526
C   13.4700012207  5.5700006485  9.3900003433
O   13.8400001526  5.5500001907  8.0000000000
C   15.0700006485  4.8500003815  7.7900004387
H   14.0900001526  3.0600001812  8.5200004578
H   15.8199996948  3.1100001335  9.0000000000
H   15.2000007629  5.1100006104  10.5800008774
H   13.9800014496  3.9500000477  10.9100008011
H   13.6900005341  6.6200008392  9.6500005722
H   12.4100008011  5.3000001907  9.5200004578
H   15.9200010300  5.4700002670  8.1200008392
H   15.1800012589  4.5400004387  6.7400002480
C   14.6700010300  9.8700008392  17.9700012207
C   14.1200008392  10.5200004578  16.6700000763
C   15.0700006485  11.7600002289  16.5000000000
O   16.1599998474  11.5700006485  17.4700012207
C   16.0900001526  10.2299995422  17.9300003052
H   14.5699996948  8.7800006866  17.9300003052
H   14.1500005722  10.3000011444  18.8300018311
H   13.0800008774  10.8500003815  16.7600021362
H   14.2200002670  9.8400001526  15.8100013733
H   14.4400014877  12.6400003433  16.6800003052
H   15.4300012589  11.9300003052  15.4800014496
H   16.5000000000  10.1500015259  18.9400005341
H   16.6100006104  9.5000000000  17.2900009155
C   15.9000005722  2.7600002289  17.5100002289
C   17.1000003815  2.8800001144  18.5000019073
C   18.2800006866  3.0100002289  17.5500011444
O   17.9700012207  1.8900001049  16.6300010681
C   16.5400009155  1.8500000238  16.4000015259
H   15.3700008392  3.6600003242  17.1800003052
H   15.0500011444  2.2700002193  18.0000000000
H   17.2400016785  2.0000000000  19.1300010681
H   17.0900001526  3.8100001812  19.0900001526
H   19.2600021362  2.7300000191  17.9700012207
H   18.1500015259  3.9500000477  17.0100002289
H   16.2299995422  0.8100000024  16.5800018311
H   16.3700008392  2.1000001431  15.3400001526
C   10.6300010681  14.8000001907  10.4600000381
C   9.5400009155  15.5800008774  9.7100009918
C   10.3299999237  16.4899997711  8.7399997711
O   11.3700008392  15.5200004578  8.3400001526
C   11.8800010681  14.9900007248  9.5699996948
H   10.3100004196  13.7600002289  10.6100006104
H   10.8699998856  15.2400007248  11.4300003052
H   8.8699998856  16.1300010681  10.3900003433
H   8.9700002670  14.8600006104  9.1300001144
H   10.8000001907  17.3000011444  9.3100004196
H   9.8900003433  16.8100013733  7.7900004387
H   12.6200008392  15.7300004959  9.9000005722
H   12.3900012970  14.0300006866  9.4500007629
C   6.9800000191  18.0200004578  7.0400004387
C   7.7600002289  19.3500003815  7.0200004578
C   7.6200003624  19.8000011444  8.4800004959
O   7.7100000381  18.5400009155  9.2200002670
C   6.7800002098  17.6400012970  8.6000003815
H   7.6600003242  17.2500000000  6.6700005531
H   5.9900002480  18.0800018311  6.5700001717
H   7.2900004387  20.0500011444  6.3200001717
H   8.8299999237  19.1900024414  6.8200006485
H   6.6900005341  20.3400020599  8.6900005341
H   8.4800004959  20.4500007629  8.6600008011
H   5.7600002289  17.8400001526  8.9600000381
H   7.0700001717  16.6399993896  8.9200000763
C   19.9500007629  7.6600003242  11.3600006104
C   20.4000015259  6.7200002670  12.4800004959
C   19.9300022125  5.3699998856  12.1300010681
O   19.9600009918  5.4099998474  10.6600008011
C   19.3100013733  6.6700005531  10.3600006104
H   0.1800000072  8.2200002670  10.9200000763
H   19.2500000000  8.4300003052  11.7300014496
H   19.9099998474  7.0000004768  13.4300003052
H   0.8800000548  6.5700001717  12.5100002289
H   18.9099998474  5.1300001144  12.4499998093
H   20.5300025940  4.5200004578  12.4700012207
H   18.2200012207  6.5300006866  10.3700008392
H   19.5700016022  6.9500007629  9.3299999237
C   13.1900005341  20.3000030518  0.7100000381
C   13.1800003052  0.6599999666  20.0300006866
C   12.9099998474  20.2000007629  18.9200000763
O   12.5300006866  19.0500011444  19.5700016022
C   12.1300010681  19.2800006866  0.3400000334
H   12.9700002670  0.2200000137  1.6400001049
H   14.2000007629  19.8800010681  0.8000000715
H   13.9900007248  1.3600001335  19.8200016022
H   12.3100004196  1.3199999332  20.0000000000
H   13.8100004196  20.1500015259  18.2900009155
H   12.0699996948  20.4700012207  18.2700004578
H   12.2100009918  18.3000011444  0.8300000429
H   11.0900011063  19.6400012970  0.3800000250
C   17.1900005341  6.5199999809  5.6500000954
C   17.0100002289  6.4800000191  4.0600004196
C   18.4300003052  5.9600000381  3.6700000763
O   19.0000000000  5.2600002289  4.7700004578
C   18.0000000000  5.2799997330  5.8800001144
H   16.2600002289  6.4500002861  6.2100005150
H   17.8400001526  7.3800001144  5.8800001144
H   16.8500003815  7.4700002670  3.6100003719
H   16.2400016785  5.7800002098  3.7300002575
H   19.0800018311  6.7899999619  3.3600001335
H   18.3500003815  5.2400007248  2.8500003815
H   18.5400009155  5.3699998856  6.8200006485
H   17.4400005341  4.3300004005  5.9100003242
C   0.6400000453  2.1600000858  2.7400002480
C   1.1499999762  1.0500000715  1.8700001240
C   1.2000000477  1.7000000477  0.4200000167
O   0.3000000119  2.7600002289  0.3800000250
C   0.3200000226  3.3000001907  1.7200000286
H   1.4300000668  2.4100000858  3.4600000381
H   20.3100013733  1.9800001383  3.2900002003
H   0.5000000000  0.1800000072  2.0000000000
H   2.1600000858  0.6900000572  2.0900001526
H   1.0099999905  0.9500000477  20.2500000000
H   2.2300000191  2.0900001526  0.3900000155
H   19.9500007629  3.7500002384  1.9800001383
H   1.0000000000  4.1400003433  1.8900001049
C   18.2100009918  19.5600013733  0.0400000028
C   18.3400001526  18.5200004578  1.1700000763
C   19.0699996948  17.4400005341  0.4600000381
O   19.9600009918  18.1100006104  20.1700019836
C   19.1000003815  19.0900001526  19.5200004578
H   18.4400005341  20.5500011444  0.4400000274
H   17.2200012207  19.5300006866  20.1800003052
H   17.3800010681  18.1100006104  1.4900000095
H   18.9400005341  18.9600009918  1.9700001478
H   18.3999996185  16.7800006866  20.5000019073
H   19.7200012207  16.7700004578  1.0399999619
H   18.4700012207  18.5600013733  18.8100013733
H   19.6500015259  19.9500007629  19.1100006104
C   18.5000019073  16.8100013733  5.9500002861
C   19.4700012207  18.0600013733  6.0000000000
C   19.3900012970  18.4400005341  4.5300002098
O   17.9700012207  18.3900012970  4.2699999809
C   17.5200004578  17.1400012970  4.8200001717
H   18.0600013733  16.6800003052  6.9500007629
H   19.0600013733  15.8800010681  5.8200001717
H   20.4800014496  17.7500000000  6.3000006676
H   19.1100006104  18.7800006866  6.7400002480
H   19.9900016785  17.8600006104  3.8200001717
H   19.6599998474  19.4800014496  4.3300004005
H   17.4900016785  16.4099998474  4.0100002289
H   16.4700012207  17.2500000000  5.1100006104
C   12.1700000763  8.0000000000  5.9100003242
C   13.2800006866  8.9000005722  6.6000003815
C   14.2899999619  9.0200004578  5.4500002861
O   13.4700012207  9.2200002670  4.3100004196
C   12.4400005341  8.1500005722  4.4500002861
H   11.1700010300  8.3600006104  6.1600008011
H   12.3000001907  6.9300003052  6.1000003815
H   13.6100006104  8.4400005341  7.5399999619
H   12.8300008774  9.8700008392  6.8400001526
H   14.8900012970  8.1000003815  5.3600001335
H   14.9100008011  9.8800001144  5.7399997711
H   12.8300008774  7.2100000381  4.0600004196
H   11.5400009155  8.4099998474  3.8700003624
C   7.1700000763  8.3400001526  1.5200001001
C   7.8500003815  7.7800006866  0.2000000179
C   8.9900007248  6.9900007248  0.9300000072
O   9.4300003052  7.8800005913  1.9900001287
C   8.3500003815  8.6100006104  2.4500000477
H   6.4600000381  7.5600004196  1.8100000620
H   6.5600004196  9.2399997711  1.3700001240
H   8.3199996948  8.5300006866  20.1599998474
H   7.2700004578  7.0400004387  20.2299995422
H   9.8299999237  6.9000005722  0.2300000191
H   8.6400003433  6.0300006866  1.3400000334
H   8.6000003815  9.6700010300  2.3900001049
H   8.2300004959  8.3699998856  3.5100002289
C   2.4000000954  16.8100013733  3.6100003719
C   2.2200002670  17.9800014496  2.6700000763
C   2.4800000191  17.2900009155  1.2800000906
O   2.1600000858  15.9200010300  1.5900001526
C   1.5900001526  15.7000007629  2.9100000858
H   2.0600001812  16.9800014496  4.6400003433
H   3.4500002861  16.5300006866  3.7300002575
H   2.9000000954  18.7800006866  3.0100002289
H   1.2300000191  18.3500003815  2.9500002861
H   3.5100002289  17.3900012970  0.9300000072
H   1.7799999714  17.6700000763  0.5199999809
H   1.8500000238  14.6800003052  3.2200002670
H   0.5100000501  15.8800010681  2.9700002670
C   2.2200002670  15.8500003815  14.6500005722
C   2.1600000858  15.9100008011  16.1400012970
C   2.0300002098  14.3600006104  16.4300003052
O   2.6700000763  13.6600008011  15.3400001526
C   3.3800003529  14.7300004959  14.5100011826
H   2.4400000572  16.8500003815  14.2700004578
H   1.3400000334  15.4200000763  14.1700000763
H   1.3100001812  16.5000000000  16.5200004578
H   3.0900001526  16.1700019836  16.6500015259
H   0.9700000286  14.0700006485  16.5000000000
H   2.5199999809  14.1400003433  17.3800010681
H   3.4800002575  14.4100008011  13.4700012207
H   4.3600001335  14.9500007629  14.9400005341
C   20.2400016785  12.1800003052  20.0200004578
C   0.8400000334  13.1900005341  20.4700012207
C   0.3200000226  14.5600013733  19.8700008392
O   19.8500022888  14.2700004578  18.8900012970
C   19.1700000763  13.1500005722  19.4100017548
H   19.9800014496  11.6599998474  0.3400000334
H   20.4200000763  11.3600006104  19.3199996948
H   1.7699999809  12.9400005341  19.9400005341
H   1.0500000715  13.2500000000  0.9400000572
H   1.1800000668  15.0900001526  19.4600009918
H   20.3299999237  15.1000013351  0.0100000007
H   18.5799999237  12.6200008392  18.6500015259
H   18.4500007629  13.5500001907  20.1300010681
C   3.0999999046  14.6199998856  6.5400004387
C   4.1100001335  13.4600009918  6.6500000954
C   5.4300003052  14.1100006104  7.0400004387
O   5.0200004578  15.1400003433  7.9099998474
C   3.8300001621  15.7600011826  7.2900004387
H   2.1100001335  14.3400001526  6.9200000763
H   3.0400002003  14.8000001907  5.4600000381
H   4.2100005150  13.0000009537  5.6600003242
H   3.7400002480  12.7000007629  7.3500003815
H   5.9100003242  14.5699996948  6.1700005531
H   6.1300001144  13.4500007629  7.5799999237
H   4.2600002289  16.5699996948  6.7000002861
H   3.3299999237  16.2400016785  8.1400003433
C   14.4100008011  19.8000011444  14.1300010681
C   13.9900007248  19.3300018311  15.5100011826
C   14.0100002289  17.8100013733  15.3700008392
O   15.0500011444  17.4500007629  14.4700002670
C   15.1500015259  18.5200004578  13.5500001907
H   15.2600002289  20.4899997711  14.2000007629
H   13.5900011063  20.2299995422  13.5500001907
H   13.0000009537  19.6500015259  15.8500003815
H   14.6600008011  19.6400012970  16.3100013733
H   13.0700006485  17.4600009918  14.9200010300
H   14.3000011444  17.2400016785  16.2600002289
H   14.4300003052  18.3299999237  12.7400007248
H   16.1900005341  18.5500011444  13.2200002670
C   5.9800004959  8.6600008011  6.0100002289
C   6.1900000572  9.1800003052  7.4000000954
C   5.1000003815  10.1700010300  7.6400003433
O   4.4800000191  10.3500003815  6.3299999237
C   5.3500003815  9.8900003433  5.3800005913
H   5.1900005341  7.9200005531  5.8900003433
H   6.8300004005  8.3900003433  5.3699998856
H   7.1300005913  9.7200002670  7.5399999619
H   6.2300004959  8.3500003815  8.1200008392
H   5.4700002670  11.1700010300  7.9000000954
H   4.2800002098  9.9400005341  8.3300008774
H   5.9900002480  10.7700004578  5.2100000381
H   4.7100000381  9.6100006104  4.5400004387
C   11.4000015259  13.9500007629  14.0100002289
C   12.9500007629  14.0400009155  13.7200012207
C   13.1300010681  12.5700006485  13.3800010681
O   12.4700012207  11.8600006104  14.3700008392
C   11.3700008392  12.6800003052  14.9500007629
H   10.7700004578  14.0100002289  13.1100006104
H   11.0799999237  14.8600006104  14.5300006866
H   13.4900007248  14.3700008392  14.6100006104
H   13.0600013733  14.8200016022  12.9500007629
H   14.1800012589  12.2400007248  13.3600006104
H   12.6800003052  12.2300004959  12.4400005341
H   11.5400009155  12.9500007629  16.0000000000
H   10.4500007629  12.0800008774  14.8600006104
C   0.2000000179  0.6200000048  15.7700004578
C   0.9000000358  1.9400000572  15.4100017548
C   2.3900001049  1.5600000620  15.8500003815
O   2.3300001621  0.1900000125  16.1000022888
C   1.2300000191  20.2200012207  15.3700008392
H   19.8100013733  0.4300000072  15.3400001526
H   20.5400009155  0.6400000453  16.8300018311
H   0.4900000095  2.8100001812  15.9500007629
H   0.7500000000  2.0300002098  14.3300008774
H   2.6900002956  2.0799999237  16.7600021362
H   3.2300000191  1.7500001192  15.1700010300
H   0.8100000024  19.2700004578  15.7400016785
H   1.4200000763  20.1400012970  14.2899999619
C   15.6600008011  7.0100002289  14.4000005722
C   16.6900005341  6.1200003624  15.1400003433
C   16.1800003052  6.3800001144  16.6200008392
O   14.7600002289  6.1900000572  16.5200004578
C   14.3800010681  6.6200008392  15.1700010300
H   15.6400012970  6.8000001907  13.3199996948
H   15.8400011063  8.0900001526  14.5000000000
H   17.7500000000  6.3700003624  15.0100002289
H   16.6100006104  5.0900001526  14.7600002289
H   16.2900009155  7.4400000572  16.8800010681
H   16.6600017548  5.7700004578  17.3900012970
H   13.6100006104  7.4000000954  15.2800006866
H   13.9099998474  5.7600002289  14.6700010300
C   15.5100011826  19.1399993896  7.1300005913
C   14.5100011826  19.6000003815  6.0200004578
C   13.1800003052  18.9700012207  6.5400004387
O   13.5300006866  18.1600017548  7.7000002861
C   14.8400011063  17.7700004578  7.5000004768
H   15.6100006104  19.9700012207  7.8300004005
H   16.4800014496  19.0600013733  6.6200008392
H   14.8200016022  19.2200012207  5.0500001907
H   14.4200000763  0.0900000036  5.9600000381
H   12.8400001526  18.1700000763  5.8699998856
H   12.3200016022  19.6100006104  6.7500000000
H   14.8100004196  16.9400005341  6.7899999619
H   15.2400007248  17.3600006104  8.4400005341
C   11.9000005722  20.3899993896  9.8299999237
C   13.3400011063  0.2300000191  9.8800001144
C   13.3400011063  1.1800000668  11.0900011063
O   12.1500005722  1.9000000954  10.7600011826
C   11.1000003815  0.9900000691  10.4899997711
H   11.6400003433  19.5300006866  10.4600000381
H   11.5800008774  20.1599998474  8.8000001907
H   13.5500001907  0.7600000501  8.9500007629
H   14.1800012589  20.1200008392  9.9600009918
H   14.1500005722  1.9100000858  11.1499996185
H   13.0100011826  0.6900000572  12.0100011826
H   10.4500007629  1.4400000572  9.7300004959
H   10.5700006485  0.5900000334  11.3600006104
C   0.2800000012  12.3100004196  5.7300000191
C   0.1299999952  11.1600008011  4.7100000381
C   19.5200004578  10.4400005341  5.3300004005
O   18.5900001526  11.4400005341  5.3900003433
C   19.3400020599  12.6000013351  5.9200000763
H   0.7600000501  13.2100009918  5.3400001526
H   0.7700001001  11.9500007629  6.6400003433
H   1.0700000525  10.6200008392  4.5600004196
H   20.4599990845  11.5700006485  3.7300002575
H   19.5200004578  9.9700002670  6.3200001717
H   19.0600013733  9.7300004959  4.6400003433
H   19.1300010681  12.8000011444  6.9800000191
H   19.0699996948  13.5000000000  5.3500003815
C   7.9900002480  5.9900002480  8.1700000763
C   8.6200008392  4.7700004578  7.4600005150
C   7.9000000954  3.6100003719  8.1400003433
O   7.4000000954  4.0700001717  9.3700008392
C   7.9300003052  5.4300003052  9.5900001526
H   7.0200004578  6.3000006676  7.7800006866
H   8.6300001144  6.8800001144  8.0700006485
H   9.7000007629  4.8500003815  7.6100006104
H   8.6000003815  4.8100004196  6.3700003624
H   8.6300001144  2.8600001335  8.4700002670
H   7.1400003433  3.0999999046  7.5300002098
H   8.9600000381  5.4000000954  9.9900007248
H   7.3400001526  5.9900002480  10.3200006485
C   7.4400000572  19.5000000000  2.9500002861
C   8.5200004578  18.3800010681  2.9900002480
C   8.2600002289  17.7800006866  1.5600000620
O   6.8600006104  17.8300018311  1.3400000334
C   6.1999998093  18.7700004578  2.2700002193
H   7.6500005722  20.4500007629  2.4300000668
H   7.1400003433  19.7200012207  3.9800002575
H   8.3600006104  17.5700016022  3.7100002766
H   9.5100002289  18.8400001526  3.0400002003
H   8.6800003052  16.7700004578  1.4800000191
H   8.7600002289  18.3800010681  0.7900000215
H   5.6600003242  18.2300014496  3.0600001812
H   5.6500000954  19.4300003052  1.5900001526
C   3.0600001812  6.7100000381  17.1100006104
C   3.7400002480  5.9600000381  18.2900009155
C   2.7800002098  4.7300000191  18.4700012207
O   2.4600000381  4.4100003242  17.1300010681
C   2.1400001049  5.6400003433  16.5000000000
H   3.7200000286  7.1600003242  16.3700008392
H   2.4900002480  7.5399999619  17.5400009155
H   3.6600003242  6.6000003815  19.1800003052
H   4.7800002098  5.7399997711  18.0300006866
H   1.8800001144  4.9900002480  19.0600013733
H   3.1600000858  3.8900003433  19.0600013733
H   1.1100001335  5.9100003242  16.7600021362
H   2.2600002289  5.4700002670  15.4300012589
C   1.9100000858  17.6700000763  11.2600002289
C   2.0000000000  18.8000011444  10.2000007629
C   0.5400000215  18.6900005341  9.7200002670
O   0.3499999940  17.2600002289  9.5800008774
C   1.0700000525  16.5699996948  10.5700006485
H   1.3700001240  17.9700012207  12.1600008011
H   2.8800001144  17.2600002289  11.5500011444
H   2.6900002956  18.5400009155  9.3900003433
H   2.1300001144  19.8400001526  10.5200004578
H   0.3100000024  19.1500015259  8.7500009537
H   20.4899997711  19.0699996948  10.5200004578
H   1.5700000525  15.7400016785  10.0500001907
H   0.4200000167  16.1100006104  11.3299999237
C   11.9200000763  3.0299999714  14.3700008392
C   11.0600004196  1.8100000620  14.8000001907
C   11.6599998474  1.5400002003  16.1900005341
O   12.9800014496  2.0099999905  16.3000011444
C   13.2900009155  2.6500000954  15.0300006866
H   11.4799995422  3.9400002956  14.8000001907
H   11.9600009918  3.2700002193  13.3000001907
H   11.1200008392  0.9200000763  14.1700000763
H   10.0200004578  2.1400001049  14.9300003052
H   11.6300010681  0.4600000381  16.3200016022
H   11.0100002289  1.9100000858  16.9900016785
H   13.9000015259  2.0199999809  14.3600006104
H   13.8500013351  3.5800001621  15.2200012207
C   10.1800003052  7.9700002670  17.1599998474
C   10.5200004578  8.3100004196  15.6500005722
C   9.6500005722  9.5100002289  15.4500007629
O   8.4500007629  9.0400009155  15.9700012207
C   8.7399997711  8.4400005341  17.2000007629
H   10.8100013733  8.5500001907  17.8300018311
H   10.1599998474  6.9100003242  17.4300003052
H   10.2400007248  7.4600005150  15.0200004578
H   11.5700006485  8.3800010681  15.3600006104
H   9.5000000000  9.8000001907  14.4000005722
H   9.9800004959  10.3700008392  16.0499992371
H   7.9300003052  7.7900004387  17.5600013733
H   8.6300001144  9.2800006866  17.9000015259
C   14.8400011063  14.7500000000  18.2800006866
C   14.0600004196  15.8100013733  19.0300006866
C   15.0100002289  16.9300003052  19.1900024414
O   16.3400001526  16.4099998474  19.0200004578
C   16.2800006866  14.9200010300  18.8500003815
H   14.8700008392  14.9500007629  17.2100009918
H   14.4400014877  13.8000011444  18.6700019836
H   13.6800003052  15.5300006866  20.0200004578
H   13.2000007629  16.2100009918  18.4900016785
H   14.9600009918  17.4500007629  20.1599998474
H   14.8100004196  17.7000007629  18.4300003052
H   16.3300018311  14.5000000000  19.8600006104
H   17.1000003815  14.6000003815  18.1900005341
C   12.8500003815  16.3200016022  3.5000002384
C   12.5799999237  14.8800001144  2.9200003147
C   11.1499996185  15.0799999237  2.3700001240
O   10.4500007629  16.0400009155  3.2400000095
C   11.4200010300  16.6399993896  4.1700000763
H   13.0800008774  17.0799999237  2.7400002480
H   13.6600008011  16.4400005341  4.2300000191
H   12.6200008392  14.0500011444  3.6400003433
H   13.2600011826  14.6199998856  2.1100001335
H   10.5500011444  14.1900005341  2.1600000858
H   11.2200012207  15.4899997711  1.3500000238
H   11.3200006485  16.1000022888  5.1200003624
H   11.1499996185  17.6800003052  4.3699998856
C   18.2700004578  17.1800003052  16.3500003815
C   18.1100006104  15.8199996948  15.7700004578
C   19.1200008392  15.7200002670  14.5500001907
O   19.4100017548  17.1100006104  14.3000011444
C   18.5600013733  17.9400005341  15.0500011444
H   19.0699996948  17.2000007629  17.0900001526
H   17.3600006104  17.5100002289  16.8800010681
H   17.0700016022  15.7200002670  15.4600009918
H   18.2000007629  15.1100006104  16.5900001526
H   18.6800003052  15.3200006485  13.6300001144
H   20.0000000000  15.1400003433  14.8299999237
H   17.6400012970  18.2200012207  14.5100011826
H   19.1700000763  18.8000011444  15.3400001526
C   13.7000007629  4.5600004196  20.1800003052
C   13.9500007629  6.0900001526  20.0900001526
C   12.8100004196  6.5600004196  19.1200008392
O   11.9899997711  5.4099998474  18.8600006104
C   12.9300012589  4.2800002098  18.8600006104
H   13.0399999619  4.3200001717  0.4200000167
H   14.6500005722  4.0199999809  20.3199996948
H   14.9000015259  6.1999998093  19.5600013733
H   14.0000009537  6.5900001526  0.4700000286
H   13.3500003815  6.9400000572  18.2500000000
H   12.1800003052  7.3500003815  19.5400009155
H   13.5900011063  4.3000001907  17.9900016785
H   12.4900007248  3.2800002098  18.8400001526
C   2.6600000858  5.6500000954  7.3200006485
C   3.3100004196  6.5700001717  8.3300008774
C   2.1400001049  7.0500001907  9.1500005722
O   1.2100000381  7.3900003433  8.1500005722
C   1.3999999762  6.4600000381  7.0600004196
H   2.3600001335  4.6900000572  7.7500004768
H   3.3200001717  5.3800005913  6.4900007248
H   3.8300001621  7.4400000572  7.9200005531
H   3.9300000668  5.9700002670  9.0100002289
H   2.3700001240  7.9200005531  9.7800006866
H   1.7100000381  6.2700004578  9.7899999619
H   1.4800000191  7.0700001717  6.1500000954
H   0.4700000286  5.8800001144  6.9900007248
C   17.0200004578  16.0400009155  10.6700000763
C   16.0799999237  14.9600009918  11.2100009918
C   16.9800014496  13.7300004959  11.4099998474
O   17.7200012207  13.8500013351  10.1500015259
C   18.1600017548  15.2200012207  10.0900001526
H   17.3900012970  16.7600021362  11.4099998474
H   16.5900001526  16.5500011444  9.8000001907
H   15.3400001526  14.7400007248  10.4400005341
H   15.5600013733  15.2300014496  12.1400012970
H   16.6100006104  12.7000007629  11.5400009155
H   17.6900005341  13.9200010300  12.2300004959
H   18.2700004578  15.4300012589  9.0100002289
H   19.1399993896  15.4200000763  10.5200004578
C   10.2200012207  11.9000005722  6.3299999237
C   8.7399997711  12.2900009155  6.0300006866
C   8.7700004578  12.2500000000  4.5100002289
O   9.6599998474  11.1400012970  4.2800002098
C   10.7600011826  11.5400009155  5.0000000000
H   10.3200006485  10.9600009918  6.8800001144
H   10.7899999619  12.6300001144  6.9200000763
H   8.4300003052  13.2700004578  6.4100003242
H   7.9000000954  11.6900005341  6.4100003242
H   9.1400003433  13.1900005341  4.0700001717
H   7.8100004196  11.9899997711  4.0600004196
H   11.2900009155  12.3500003815  4.4700002670
H   11.4000015259  10.6500005722  5.0500001907
C   0.7700001001  13.1400003433  9.9500007629
C   0.2900000215  11.6599998474  10.0500001907
C   1.5600000620  10.9700002670  10.0799999237
O   2.6300001144  11.8700008392  9.6800003052
C   2.2700002193  13.1800003052  10.1700010300
H   0.3900000155  13.8200006485  10.7200002670
H   0.4700000286  13.4700012207  8.9600000381
H   20.2400016785  11.3500013351  9.2300004959
H   20.3000030518  11.6000003815  10.9700002670
H   1.6400001049  10.1900005341  9.3000011444
H   1.7699999809  10.4700002670  11.0300006866
H   2.8500003815  13.9000015259  9.5900001526
H   2.5600001812  13.3199996948  11.2200012207
C   7.8200006485  4.5800004005  15.2000007629
C   7.2000002861  4.5400004387  16.6100006104
C   6.3000006676  3.3000001907  16.5600013733
O   6.4800000191  2.7100002766  15.2600002289
C   6.8900003433  3.7899999619  14.3700008392
H   8.8200006485  4.1500000954  15.1100006104
H   7.9000000954  5.5800004005  14.7500000000
H   6.7100000381  5.5000000000  16.8500003815
H   7.9900002480  4.5700001717  17.3600006104
H   5.3000001907  3.7400002480  16.5000000000
H   6.3100004196  2.6100001335  17.4099998474
H   6.0100002289  4.3800001144  14.0800008774
H   7.2800006866  3.3000001907  13.4600009918
C   5.1800003052  9.7700004578  17.2800006866
C   4.7700004578  11.0500001907  18.0500011444
C   4.5800004005  10.5000009537  19.4900016785
O   4.7200002670  9.0700006485  19.3800010681
C   5.6900000572  8.8900003433  18.3900012970
H   5.9800004959  10.0200004578  16.5800018311
H   4.3300004005  9.4100008011  16.6800003052
H   3.9000000954  11.6700000763  17.7800006866
H   5.6700000763  11.6700000763  18.1000003815
H   3.6100003719  10.8100013733  19.9200019836
H   5.3400001526  10.8500003815  20.1900005341
H   5.7000007629  7.8500003815  18.0600013733
H   6.6400003433  9.1900005341  18.8600006104
C   8.7700004578  19.5799999237  16.8900012970
C   9.5500001907  18.6400012970  17.7399997711
C   10.6700000763  18.0699996948  16.8000011444
O   10.5700006485  18.9700012207  15.6200008392
C   9.2300004959  19.2400016785  15.4800014496
H   8.9600000381  0.0200000014  17.2000007629
H   7.6800003052  19.5100002289  16.9200000763
H   8.8900003433  17.8300018311  18.0900020599
H   10.0300006866  19.0300006866  18.6400012970
H   10.3200006485  17.0600013733  16.5600013733
H   11.6800012589  17.9800014496  17.2200012207
H   8.7800006866  18.3400001526  15.0500011444
H   9.1999998093  20.1100006104  14.8000001907
C   8.2300004959  1.7100000381  19.9200019836
C   9.0300006866  2.9900002480  19.6500015259
C   9.9800004959  3.1400001049  0.3100000024
O   9.9200000763  1.8700001240  0.9500000477
C   9.3800001144  0.8500000238  0.0400000028
H   8.0000000000  1.0600000620  19.0699996948
H   7.2600002289  1.7699999809  20.4300003052
H   8.3699998856  3.8600001335  19.5600013733
H   9.5699996948  2.9400000572  18.7000007629
H   9.6800003052  3.9600002766  0.9700000286
H   11.0000000000  3.4000000954  0.0000000000
H   9.0500001907  20.5900001526  0.6400000453
H   10.1500015259  0.5000000000  19.9400005341
C   11.1100006104  8.7200002670  9.9100008011
C   10.9400005341  8.4099998474  11.4200010300
C   11.4600000381  9.7400007248  12.0300006866
O   12.6200008392  10.0400009155  11.1700010300
C   12.0800008774  9.9200000763  9.8299999237
H   10.1400003433  8.9600000381  9.4500007629
H   11.5100002289  7.8700008392  9.3400001526
H   11.4799995422  7.5399999619  11.7899999619
H   9.8700008392  8.2400007248  11.5100002289
H   11.7600002289  9.6900005341  13.0800008774
H   10.6200008392  10.4300012589  11.9000005722
H   12.9200000763  9.8200006485  9.1300001144
H   11.6900005341  10.9400005341  9.6900005341
