768
snapshot_id=pure_eda_r1_t17600ps source_time_ps=17600.000000
N   11.3299999237  10.8400011063  11.4200010300
C   10.8699998856  11.3000001907  12.7800006866
C   9.7899999619  12.3000001907  12.6800003052
N   8.5000000000  11.7600002289  12.2300004959
H   10.5000009537  10.5900001526  10.8900012970
H   11.7399997711  9.9200000763  11.5800008774
H   11.7399997711  11.7700004578  13.2500000000
H   10.5900001526  10.4099998474  13.3500003815
H   9.9800004959  13.0700006485  11.9200000763
H   9.7200002670  12.8700008392  13.6100006104
H   7.9200005531  11.2500000000  12.8900003433
H   8.6800003052  11.0900011063  11.4700012207
N   7.7800006866  11.1100006104  5.5800004005
C   8.9200000763  10.3200006485  5.0700001717
C   9.9300003052  11.2700004578  4.3600001335
N   10.3299999237  12.3100004196  5.3100004196
H   7.3000001907  11.4400005341  4.7500000000
H   8.1200008392  11.9899997711  5.9600000381
H   8.7100009918  9.5500001907  4.3300004005
H   9.4900007248  9.9400005341  5.9300003052
H   9.4700002670  11.7300014496  3.4700000286
H   10.7800006866  10.7100009918  3.9600002766
H   11.2700004578  12.6599998474  5.1200003624
H   10.5399999619  11.8400001526  6.1900000572
N   11.2500000000  10.5300006866  18.3400001526
C   12.2400007248  10.3000011444  17.3100013733
C   12.4600009918  11.3500013351  16.2000007629
N   12.8400001526  12.6400003433  16.7800006866
H   10.4000005722  10.8000001907  17.8500003815
H   11.5200004578  11.4300003052  18.7200012207
H   11.8800010681  9.4800004959  16.6800003052
H   13.2100009918  10.1900005341  17.8199996948
H   11.5100002289  11.5200004578  15.6900014877
H   13.2400016785  11.1100006104  15.4700002670
H   13.7600002289  12.6400003433  17.2100009918
H   12.3500003815  12.9500007629  17.6100006104
N   8.4000005722  7.1900005341  16.0200004578
C   8.9099998474  8.6100006104  15.8199996948
C   7.8900003433  9.5800008774  15.1100006104
N   6.7200002670  9.9100008011  15.8400011063
H   7.6100006104  7.2400002480  16.6700000763
H   9.1100006104  6.6400003433  16.5200004578
H   9.7400007248  8.5200004578  15.1200008392
H   9.2399997711  8.9700002670  16.8000011444
H   7.5300002098  9.0700006485  14.2100009918
H   8.3400001526  10.5500011444  14.8700008392
H   7.0100002289  10.5399999619  16.5900001526
H   6.4400005341  9.0300006866  16.2700004578
N   1.1800000668  1.5600000620  13.5300006866
C   2.1700000763  0.6299999952  12.8900003433
C   1.6299999952  18.5900001526  12.7100000381
N   1.3600001335  17.9600009918  14.0100002289
H   1.5400002003  2.5000000000  13.6400012970
H   1.0800000429  1.2200000286  14.4900016785
H   2.9700002670  0.5800000429  13.6300001144
H   2.4800000191  1.0500000715  11.9200000763
H   2.2999999523  17.9100017548  12.1800003052
H   0.6400000453  18.6599998474  12.2400007248
H   0.9600000381  18.6900005341  14.6000003815
H   2.2200002670  17.6300010681  14.4600009918
N   6.5500001907  11.8700008392  2.6500000954
C   6.3100004196  12.8100004196  1.5400002003
C   5.6600003242  14.1300010681  1.9600000381
N   4.3300004005  13.9200010300  2.2800002098
H   6.8500003815  10.9800004959  2.2600002289
H   5.6200003624  11.6800012589  3.0299999714
H   5.6800003052  12.2500000000  0.8400000334
H   7.1900005341  12.9300012589  0.8899999857
H   5.7700004578  14.7000007629  1.0300000906
H   6.2300004959  14.5699996948  2.7900002003
H   4.0300002098  14.6100006104  2.9700002670
H   4.2500000000  13.0700006485  2.8400001526
N   4.2899999619  17.7200012207  9.3000011444
C   3.4800002575  18.8500003815  8.6900005341
C   4.2600002289  0.7600000501  8.6600008011
N   4.5200004578  1.3100001812  10.0500001907
H   5.2500004768  18.0000000000  9.1000003815
H   4.0800004005  16.9100017548  8.7300004959
H   2.5399999619  18.9000015259  9.2399997711
H   3.1700000763  18.7200012207  7.6400003433
H   3.8100001812  1.5400002003  8.0399999619
H   5.2100000381  0.5500000119  8.1500005722
H   4.5900001526  0.4600000381  10.6200008392
H   3.6800003052  1.8300001621  10.3000011444
N   13.9000015259  18.6800003052  17.1900005341
C   12.7500009537  17.7600021362  17.5300006866
C   13.2100009918  16.2800006866  17.6900005341
N   13.9700012207  16.0499992371  18.8800010681
H   14.5500001907  18.5200004578  17.9500007629
H   13.5400009155  0.2000000179  17.3900012970
H   12.0500001907  17.9000015259  16.7000007629
H   12.3700008392  18.2500000000  18.4400005341
H   13.6499996185  15.8700008392  16.7700004578
H   12.3700008392  15.5800008774  17.8000011444
H   13.9800014496  15.0400009155  19.0400009155
H   14.9000015259  16.3300018311  18.5799999237
N   15.3300008774  17.8400001526  13.9600000381
C   16.7700004578  18.2900009155  13.8100004196
C   16.9800014496  0.0600000024  14.7600002289
N   16.6300010681  19.2700004578  16.1700019836
H   14.7900009155  18.6400012970  13.6200008392
H   15.0700006485  17.7800006866  14.9400005341
H   17.0600013733  18.5200004578  12.7700004578
H   17.3299999237  17.3800010681  14.0400009155
H   16.3100013733  0.8700000644  14.4400014877
H   18.0500011444  0.3400000334  14.7900009155
H   17.0500011444  18.3500003815  16.3200016022
H   15.6200008392  19.2100009918  16.3200016022
N   15.8600006104  14.2100009918  16.9600009918
C   17.0000000000  13.4900007248  17.5000019073
C   16.5000000000  12.3299999237  18.3100013733
N   15.5800008774  11.4400005341  17.5800018311
H   15.1700010300  13.5600004196  16.5800018311
H   16.1700019836  14.8299999237  16.2100009918
H   17.6200008392  14.1500005722  18.1300010681
H   17.5200004578  13.1600008011  16.6000003815
H   16.0300006866  12.7299995422  19.2200012207
H   17.3600006104  11.7100000381  18.5799999237
H   15.5200004578  10.5100002289  18.0100021362
H   15.9500007629  11.2300004959  16.6600017548
N   0.2500000000  12.3999996185  3.9700002670
C   18.3100013733  12.5000000000  4.6300001144
C   18.0600013733  11.3700008392  5.7200002670
N   17.9600009918  10.0100002289  4.9800004959
H   0.2599999905  12.9300012589  3.0999999046
H   0.9300000072  12.9600000381  4.4800000191
H   17.5000019073  12.3999996185  3.9000000954
H   18.1500015259  13.5200014114  5.0200004578
H   17.1400012970  11.5000009537  6.3100004196
H   18.8800010681  11.4799995422  6.4300003052
H   18.2000007629  9.3700008392  5.7300000191
H   18.7600002289  10.0000000000  4.3400001526
N   1.5499999523  2.7000000477  3.4600000381
C   2.7000000477  2.5399999619  2.5000000000
C   3.8300001621  3.3000001907  3.0299999714
N   4.3699998856  2.5699999332  4.1800003052
H   1.7699999809  1.9800001383  4.1500000954
H   0.7600000501  2.3400001526  2.9300000668
H   2.2800002098  2.9300000668  1.5700000525
H   2.9500002861  1.4700000286  2.4900002480
H   3.4900000095  4.3200001717  3.2200002670
H   4.6700000763  3.4000000954  2.3300001621
H   3.6700000763  2.3500001431  4.8900003433
H   5.0000000000  3.2100000381  4.6700000763
N   11.6900005341  1.5800000429  17.9800014496
C   11.5700006485  2.7500000000  17.0100002289
C   10.9400005341  3.9500000477  17.6800003052
N   9.5900001526  3.7899999619  18.0699996948
H   10.7399997711  1.2699999809  18.1900005341
H   12.0600013733  1.7900000811  18.9000015259
H   10.9900007248  2.4400000572  16.1300010681
H   12.5500011444  2.9300000668  16.5500011444
H   10.8699998856  4.6600003242  16.8500003815
H   11.5299997330  4.5100002289  18.4200019836
H   9.6400003433  3.3400001526  18.9899997711
H   9.2100009918  3.1100001335  17.4200019836
N   6.3800001144  2.6300001144  14.2000007629
C   7.5799999237  1.8300001621  13.7100009918
C   8.7399997711  2.1500000954  14.6800003052
N   8.4099998474  1.7799999714  16.1400012970
H   6.6000003815  3.6300001144  14.1800012589
H   6.2400002480  2.4400000572  15.1900005341
H   7.7699999809  2.1000001431  12.6700010300
H   7.3500003815  0.7600000501  13.7400007248
H   8.9800004959  3.2200002670  14.6800003052
H   9.6400003433  1.5900001526  14.4000005722
H   8.5399999619  0.7900000215  16.3300018311
H   7.4000000954  1.8500000238  16.2600002289
N   7.6100006104  13.7600002289  10.0100002289
C   8.4300003052  14.4600009918  9.0200004578
C   9.7899999619  14.9300003052  9.6500005722
N   9.5400009155  15.7100009918  10.8900012970
H   7.3200006485  14.4700002670  10.6900005341
H   8.1400003433  13.1700000763  10.6600008011
H   7.8600001335  15.2000007629  8.4500007629
H   8.8000001907  13.7300004959  8.2900009155
H   10.4000005722  15.4600009918  8.9099998474
H   10.3500003815  14.0300006866  9.9300003052
H   8.7399997711  15.2400007248  11.3100004196
H   9.1700000763  16.6000003815  10.5399999619
N   3.5200002193  13.8500013351  5.4200005531
C   4.9900002480  13.7600002289  5.5800004005
C   5.2900004387  13.2000007629  6.9600005150
N   5.0500001907  14.2000007629  8.0900001526
H   3.1700000763  14.7500000000  5.1100006104
H   3.2000002861  13.8900003433  6.3900003433
H   5.4200005531  14.7600002289  5.5000000000
H   5.4600000381  13.0800008774  4.8600001335
H   6.3800001144  13.0700006485  7.0300002098
H   4.7100000381  12.2900009155  7.1199998856
H   5.6900000572  14.9900007248  8.0100002289
H   5.2600002289  13.8400001526  9.0100002289
N   15.8000001907  5.1500005722  0.2500000000
C   15.0500011444  5.4700002670  18.4500007629
C   15.2300014496  6.9600005150  18.1400012970
N   16.6200008392  7.2400002480  17.8500003815
H   15.6400012970  4.1599998474  0.4600000381
H   15.2500009537  5.7100005150  0.9000000358
H   13.9900007248  5.2300000191  18.6300010681
H   15.3900003433  4.8700003624  17.6000003815
H   14.8100004196  7.5000004768  18.9899997711
H   14.6900005341  7.2100000381  17.2200012207
H   16.9700012207  6.5900001526  17.1499996185
H   17.1000003815  7.0200004578  18.7300014496
N   7.2800006866  17.7100009918  14.1000003815
C   6.1700005531  17.5000019073  13.2000007629
C   6.5800004005  16.4500007629  12.1400012970
N   7.2700004578  15.2500009537  12.7200012207
H   7.0500001907  18.4900016785  14.7100009918
H   8.1600008011  17.9600009918  13.6400012970
H   6.0100002289  18.4500007629  12.6599998474
H   5.3000001907  17.2200012207  13.7900009155
H   7.3099999428  16.8700008392  11.4400005341
H   5.7399997711  16.1000022888  11.5200004578
H   6.5800004005  14.6800003052  13.2000007629
H   7.8200006485  15.6400012970  13.4800004959
N   2.2600002289  8.2200002670  16.9400005341
C   2.9600000381  9.1000003815  16.0799999237
C   1.9500000477  9.8700008392  15.1300010681
N   1.0099999905  10.7600011826  15.8199996948
H   1.9300000668  8.8200006485  17.7000007629
H   2.9100000858  7.5100002289  17.2600002289
H   3.6800003052  8.5500001907  15.4700002670
H   3.4400000572  9.8400001526  16.7300014496
H   1.4900000095  9.1500005722  14.4500007629
H   2.5300002098  10.6000003815  14.5400009155
H   1.5499999523  11.6100006104  15.9600009918
H   0.8899999857  10.3400001526  16.7399997711
N   9.5900001526  2.4600000381  1.6500000954
C   8.4700002670  2.5199999809  2.6200003624
C   8.5600004196  1.5200001001  3.7600002289
N   9.6599998474  1.9500000477  4.6400003433
H   9.6400003433  1.5600000620  1.1900000572
H   10.4700002670  2.6100001335  2.1400001049
H   7.5399999619  2.2700002193  2.1100001335
H   8.3800010681  3.4800002575  3.1400001049
H   8.8200006485  0.5400000215  3.3299999237
H   7.5799999237  1.4800000191  4.2600002289
H   9.4500007629  1.6400001049  5.5900001526
H   9.7800006866  2.9600000381  4.5700001717
N   17.4900016785  10.2100000381  15.6600008011
C   17.2700004578  9.7400007248  14.2800006866
C   17.7399997711  10.7399997711  13.1700000763
N   19.2100009918  10.8699998856  13.1400003433
H   18.4900016785  10.1500015259  15.8400011063
H   17.0000000000  9.5300006866  16.2400016785
H   16.1700019836  9.7100009918  14.2899999619
H   17.7399997711  8.7600002289  14.1599998474
H   17.2900009155  11.7100000381  13.4100008011
H   17.3700008392  10.3299999237  12.2100009918
H   0.1100000069  10.6400003433  14.0800008774
H   0.0000000000  11.8700008392  13.1600008011
N   13.8200006485  9.1200008392  3.9900002480
C   13.4400005341  10.0400009155  2.9200003147
C   14.5400009155  10.0000000000  1.8400001526
N   15.8700008392  10.4000005722  2.2700002193
H   14.2700004578  9.6800003052  4.7200002670
H   14.6000003815  8.5600004196  3.6500000954
H   13.1700000763  11.0300006866  3.3200001717
H   12.5300006866  9.7300004959  2.3900001049
H   14.2100009918  10.6100006104  0.9900000691
H   14.5500001907  8.9600000381  1.4800000191
H   16.0300006866  9.9800004959  3.1800003052
H   15.8199996948  11.3900003433  2.4800000191
N   18.8900012970  4.6700000763  4.5500001907
C   19.3600006104  5.6400003433  5.4800004959
C   0.4100000262  4.9000000954  6.8000001907
N   1.4400000572  3.9100003242  6.5300006866
H   18.5100002289  5.1500005722  3.7300002575
H   0.2300000191  4.0800004005  4.2000002861
H   18.5100002289  6.2700004578  5.7900004387
H   0.7300000787  6.1700005531  4.9300003052
H   19.0100021362  4.3400001526  7.3000001907
H   0.7900000215  5.6400003433  7.5100002289
H   2.3900001049  4.2500000000  6.3500003815
H   1.1900000572  3.4900000095  5.6400003433
N   19.2200012207  1.7000000477  8.2800006866
C   19.1000003815  1.8000000715  9.8000001907
C   0.5700000525  2.9100000858  10.3600006104
N   2.0000000000  2.8300001621  9.8700008392
H   0.8300000429  1.6299999952  8.1900005341
H   19.0900001526  2.6700000763  8.0000000000
H   19.3800010681  0.8300000429  10.2299995422
H   18.0500011444  1.9400000572  10.0799999237
H   0.5400000215  2.9400000572  11.4600000381
H   0.1000000089  3.8300001621  9.9900007248
H   2.5300002098  3.5800001621  10.3100004196
H   1.9700001478  3.1200001240  8.8900003433
N   6.4900007248  4.6900000572  18.8000011444
C   5.3600001335  3.8000001907  18.5100002289
C   3.9500000477  4.4400005341  18.7800006866
N   3.5700001717  5.4700002670  17.8500003815
H   7.3500003815  4.2200002670  18.5100002289
H   6.5199999809  4.8299999237  0.3900000155
H   5.4500002861  2.9700002670  19.2200012207
H   5.4500002861  3.4300003052  17.4900016785
H   3.8700003624  4.8900003433  0.3700000048
H   3.1900000572  3.6600003242  18.6300010681
H   3.5000002384  5.0000000000  16.9500007629
H   4.4200000763  6.0300006866  17.7700004578
N   1.1900000572  8.8500003815  9.3400001526
C   2.2600002289  8.7600002289  10.4000005722
C   3.6800003052  8.9500007629  9.7899999619
N   3.8600001335  10.2799997330  9.1300001144
H   1.0200001001  9.8299999237  9.1400003433
H   0.3299999833  8.4700002670  9.7400007248
H   2.2600002289  7.7400007248  10.7899999619
H   2.0400002003  9.3900003433  11.2800006866
H   3.8900003433  8.1700000763  9.0600004196
H   4.3900003433  8.8600006104  10.6200008392
H   3.4700000286  11.0000000000  9.7300004959
H   3.3200001717  10.4000005722  8.2700004578
N   2.3500001431  12.9899997711  9.3100004196
C   1.3100001812  14.0300006866  9.3500003815
C   1.7300000191  15.4400005341  9.3600006104
N   2.5100002289  15.6800003052  10.5500011444
H   2.9200003147  13.1900005341  10.1300001144
H   2.9800000191  13.1100006104  8.5100002289
H   0.7200000286  13.8000011444  10.2400007248
H   0.6800000668  13.8400001526  8.4700002670
H   0.8899999857  16.1500015259  9.3400001526
H   2.2900002003  15.7700004578  8.4800004959
H   3.0400002003  16.5300006866  10.3900003433
H   3.2500002384  14.9800004959  10.5800008774
N   6.3600006104  7.4700002670  18.3400001526
C   5.2200002670  8.1300001144  19.0600013733
C   5.2900004387  7.9400005341  1.2200000286
N   6.4100003242  8.7000007629  1.8700001240
H   6.2200002670  6.4800000191  18.5600013733
H   7.2200007439  7.7900004387  18.7800006866
H   4.2699999809  7.7200002670  18.6900005341
H   5.4000000954  9.1900005341  18.8400001526
H   5.4500002861  6.8600006104  1.3900001049
H   4.3900003433  8.2500000000  1.7600001097
H   6.3700003624  8.4099998474  2.8500003815
H   6.0500001907  9.6500005722  1.9100000858
N   0.8600000143  15.0700006485  2.0099999905
C   18.9500007629  15.7200002670  2.1900000572
C   19.0800018311  16.9800014496  3.0000000000
N   0.7100000381  17.9600009918  2.4900002480
H   1.4100000858  15.1700010300  2.8600001335
H   1.4400000572  15.6200008392  1.3800001144
H   18.3100013733  14.9900007248  2.7000000477
H   18.6300010681  16.0799999237  1.2100000381
H   19.3600006104  16.7600021362  4.0399999619
H   18.0900020599  17.4500007629  2.9700002670
H   0.6700000167  17.8600006104  1.4800000191
H   0.4800000191  18.9300003052  2.7300000191
N   10.3400001526  5.0799999237  12.3299999237
C   9.4800004959  6.3000006676  12.5200004578
C   10.3299999237  7.5500006676  12.7900009155
N   11.3299999237  7.7100000381  11.7899999619
H   10.6900005341  4.7500000000  13.2300004959
H   11.2200012207  5.3600001335  11.9100008011
H   8.8400001526  6.0400004387  13.3699998856
H   8.9000005722  6.3800001144  11.5900001526
H   10.8500003815  7.5300002098  13.7500009537
H   9.7300004959  8.4700002670  12.8300008774
H   10.9500007629  7.3600006104  10.9100008011
H   12.1900005341  7.2500000000  12.0699996948
N   9.9700002670  18.1400012970  12.7900009155
C   11.0600004196  18.0600013733  13.8100004196
C   10.9900007248  16.6700000763  14.5900011063
N   9.8800001144  16.6800003052  15.5399999619
H   9.6100006104  17.2299995422  12.5000000000
H   10.3800010681  18.4799995422  11.9200000763
H   11.0400009155  18.9099998474  14.5100011826
H   12.0200004578  18.1000003815  13.2800006866
H   11.9800004959  16.5600013733  15.0600004196
H   10.9100008011  15.8100013733  13.9099998474
H   9.9700002670  17.4700012207  16.1800003052
H   9.0900001526  16.9500007629  14.9600009918
N   6.8900003433  15.3000011444  16.7800006866
C   7.1500005722  13.8800001144  17.2400016785
C   8.4099998474  13.3699998856  16.5300006866
N   9.6200008392  14.0600004196  16.9000015259
H   7.4900002480  15.9300003052  17.3100013733
H   7.2400002480  15.4000005722  15.8300008774
H   6.3000006676  13.2300004959  17.0000000000
H   7.3300004005  13.9500007629  18.3200016022
H   8.2300004959  13.5000000000  15.4600009918
H   8.5700006485  12.3299999237  16.8300018311
H   9.2600002289  15.0100002289  17.0200004578
H   10.2299995422  14.0400009155  16.0900001526
N   19.3300018311  19.0699996948  6.2500000000
C   19.1700000763  17.7399997711  6.9100003242
C   17.7399997711  17.5600013733  7.4800004959
N   17.3800010681  18.6000022888  8.4600000381
H   18.9200000763  19.0200004578  5.3200001717
H   18.9600009918  0.4400000274  6.8000001907
H   0.5500000119  17.6200008392  7.6700000763
H   19.3100013733  16.9600009918  6.1500000954
H   17.6500015259  16.6000003815  8.0100002289
H   16.9500007629  17.6400012970  6.7200002670
H   17.7300014496  0.1000000089  8.1500005722
H   17.8899993896  18.4700012207  9.3299999237
N   5.7600002289  3.8000001907  8.4600000381
C   5.7700004578  5.0200004578  9.3100004196
C   6.1999998093  4.7400002480  10.7399997711
N   5.3000001907  3.8400001526  11.3700008392
H   5.4500002861  3.0100002289  9.0300006866
H   6.7000002861  3.5599999428  8.1300001144
H   4.7500000000  5.4300003052  9.3299999237
H   6.3600006104  5.7600002289  8.7600002289
H   6.2400002480  5.6700000763  11.3200006485
H   7.2300004959  4.3699998856  10.7600011826
H   5.5700006485  3.5800001621  12.3100004196
H   5.2400007248  2.9300000668  10.9300003052
N   0.5700000525  0.4900000095  16.4700012207
C   1.0500000715  19.3199996948  17.7300014496
C   2.2900002003  0.5000000000  18.4099998474
N   3.4700000286  0.1200000048  17.5800018311
H   18.9800014496  0.3200000226  16.3700008392
H   0.6800000668  1.5000000000  16.5000000000
H   1.2900000811  18.2700004578  17.5400009155
H   0.2200000137  0.0600000024  18.4300003052
H   2.3800001144  0.0700000003  0.0100000007
H   2.2400000095  1.5900001526  18.5900001526
H   3.4100003242  18.5300006866  17.4400005341
H   3.3200001717  0.5900000334  16.6900005341
N   0.7900000215  3.4400000572  16.0000000000
C   18.9700012207  4.2000002861  15.7100009918
C   19.1300010681  5.7500004768  15.6400012970
N   0.1299999952  6.2300004959  17.0100002289
H   1.0300000906  3.7500002384  16.9400005341
H   1.5499999523  3.7200000286  15.3900003433
H   18.2300014496  3.8700003624  16.4400005341
H   18.5300006866  3.7800002098  14.8000001907
H   18.2000007629  6.2899999619  15.3900003433
H   0.5000000000  5.9500002861  14.9000015259
H   0.5600000024  7.1500005722  16.9300003052
H   1.0000000000  5.7399997711  17.2100009918
N   12.7100000381  14.6100006104  4.4200000763
C   13.6800003052  13.8900003433  5.3699998856
C   15.1900005341  14.2700004578  5.1700000763
N   15.4500007629  15.7800006866  5.5200004578
H   13.1100006104  15.5300006866  4.2500000000
H   11.7899999619  14.7200012207  4.8400001526
H   13.7100009918  12.8100004196  5.2100000381
H   13.5100002289  13.9500007629  6.4500002861
H   15.5000009537  14.1100006104  4.1300001144
H   15.8100013733  13.5900011063  5.7700004578
H   15.0300006866  16.1200008392  6.3900003433
H   15.0500011444  16.3400001526  4.7700004578
N   16.5200004578  3.7600002289  5.9400005341
C   16.4700012207  2.3300001621  6.2899999619
C   16.5900001526  1.3500000238  5.1100006104
N   17.7600021362  1.6600000858  4.2500000000
H   16.1000022888  3.8000001907  5.0100002289
H   17.4500007629  3.9800002575  5.5900001526
H   15.4800014496  2.2000000477  6.7400002480
H   17.1599998474  2.2400000095  7.1400003433
H   15.6600008011  1.4200000763  4.5300002098
H   16.4899997711  0.3800000250  5.6100006104
H   17.6700000763  2.6000001431  3.8800001144
H   18.6599998474  1.7200000286  4.7400002480
N   16.2500019073  4.9500002861  9.3600006104
C   15.9800004959  6.3000006676  8.6600008011
C   17.2800006866  7.2000002861  8.7900009155
N   17.6300010681  7.5799999237  10.1500015259
H   16.9700012207  4.4600000381  8.8299999237
H   15.4500007629  4.3300004005  9.3500003815
H   15.2000007629  6.8400001526  9.2200002670
H   15.7300004959  6.1100001335  7.6100006104
H   17.0200004578  8.0600004196  8.1500005722
H   18.1200008392  6.7200002670  8.2800006866
H   17.6900005341  6.7000002861  10.6600008011
H   16.8400020599  8.1600008011  10.4400005341
N   19.0500011444  15.6500005722  12.5100002289
C   18.6400012970  14.5699996948  13.4200000763
C   0.2000000179  14.3400001526  14.6400012970
N   0.3900000155  15.5399999619  15.4899997711
H   0.4700000286  15.4500007629  11.9500007629
H   19.4000015259  16.3900012970  13.1200008392
H   18.5300006866  13.6400012970  12.8600006104
H   17.6500015259  14.6900005341  13.8900003433
H   1.1800000668  14.1300010681  14.1900005341
H   19.2300014496  13.4900007248  15.2200012207
H   18.8500003815  15.7000007629  15.8100013733
H   0.4900000095  16.3400001526  14.8700008392
N   11.5900001526  19.3600006104  8.5200004578
C   11.9800004959  19.3500003815  7.1300005913
C   13.5799999237  19.2800006866  7.0000004768
N   14.2899999619  18.0600013733  7.5900006294
H   12.1199998856  0.7100000381  8.9300003052
H   11.9300003052  18.5600013733  9.0500001907
H   11.7600002289  0.9000000358  6.6599998474
H   11.4600000381  18.4900016785  6.6900005341
H   13.9600000381  0.7600000501  7.5100002289
H   13.7600002289  19.3900012970  5.9200000763
H   15.3000011444  18.1800003052  7.7100000381
H   13.8900003433  17.7700004578  8.4800004959
N   7.4000000954  0.9800000191  7.2800006866
C   8.2300004959  1.1700000763  8.5500001907
C   8.1500005722  0.0700000003  9.7400007248
N   8.5100002289  18.2100009918  9.2500009537
H   7.2100000381  19.4000015259  7.0900006294
H   6.4800000191  1.3700001240  7.4700002670
H   7.9700002670  2.1500000954  8.9700002670
H   9.2899999619  1.2699999809  8.2800006866
H   7.1300005913  0.0200000014  10.1300001144
H   8.9000005722  0.2900000215  10.5000009537
H   9.3299999237  18.3700008392  8.6500005722
H   7.9600005150  18.0400009155  8.4000005722
N   13.9900007248  4.6800003052  12.0400009155
C   14.8000001907  4.2200002670  13.1800003052
C   16.1700019836  3.5500001907  12.7400007248
N   17.1100006104  4.5400004387  12.2100009918
H   13.7600002289  3.8400001526  11.5299997330
H   14.5900011063  5.2100000381  11.4000015259
H   14.2399997711  3.4900000095  13.7800006866
H   14.9900007248  5.0200004578  13.9000015259
H   16.0700016022  2.7200002670  12.0300006866
H   16.6399993896  3.2500002384  13.6900005341
H   16.5800018311  4.8600001335  11.4000015259
H   17.9100017548  4.0100002289  11.8600006104
N   12.6800003052  2.5600001812  10.2100000381
C   12.0000000000  1.6800000668  11.1700010300
C   12.9200000763  1.1600000858  12.2300004959
N   14.1400003433  0.5300000310  11.6200008392
H   12.7500009537  3.4900000095  10.6100006104
H   12.0699996948  2.7900002003  9.4300003052
H   11.5500011444  0.8200000525  10.6700000763
H   11.3299999237  2.2800002098  11.7899999619
H   12.5100002289  0.4400000274  12.9500007629
H   13.3000001907  2.0500001907  12.7400007248
H   14.3900003433  1.0399999619  10.7700004578
H   13.9099998474  19.0000000000  11.3299999237
N   3.4400000572  11.1100006104  3.9900002480
C   3.4100003242  10.4800014496  5.3000001907
C   3.0999999046  8.9800004959  5.1800003052
N   3.6400003433  8.2500000000  6.3100004196
H   3.4000000954  12.1100006104  4.1700000763
H   2.4900002480  11.0000000000  3.6100003719
H   2.5900001526  10.9100008011  5.8900003433
H   4.3900003433  10.6800003052  5.7399997711
H   3.5200002193  8.6400003433  4.2200002670
H   2.0300002098  8.7700004578  5.0300002098
H   3.0299999714  8.4800004959  7.0900006294
H   4.4900002480  8.6700000763  6.6800003052
N   10.2400007248  17.9900016785  1.8700001240
C   11.6100006104  17.4600009918  2.0600001812
C   12.7299995422  18.5200004578  2.0000000000
N   12.9000005722  19.3300018311  3.1900000572
H   10.0200004578  18.7400016785  2.5300002098
H   9.6100006104  17.2100009918  2.0799999237
H   11.7300014496  16.7700004578  1.2200000286
H   11.7000007629  17.0200004578  3.0600001812
H   12.6200008392  19.0400009155  1.0399999619
H   13.7500009537  18.1500015259  1.8400001526
H   12.0100011826  0.2599999905  3.5599999428
H   13.5700016022  0.6700000167  3.0200002193
N   5.3500003815  5.0600004196  5.9200000763
C   6.7500000000  5.6500000954  5.5900001526
C   6.9000005722  6.8000001907  4.5500001907
N   6.1500000954  8.0100002289  4.8100004196
H   4.6700000763  5.7900004387  6.1100001335
H   5.6100006104  4.6700000763  6.8300004005
H   7.4100008011  4.7900004387  5.4300003052
H   7.1600003242  6.0500001907  6.5300006866
H   6.5600004196  6.4400005341  3.5700001717
H   7.9600005150  7.0799999237  4.5100002289
H   6.4800000191  8.4600000381  5.6600003242
H   5.2100000381  7.7400007248  5.1000003815
N   0.7900000215  9.1200008392  0.1299999952
C   0.3700000048  10.4500007629  0.6700000167
C   1.1100001335  11.6200008392  19.3700008392
N   2.5699999332  11.5500011444  0.3299999833
H   0.1600000113  8.4099998474  0.4900000095
H   1.6800000668  8.9700002670  0.6100000143
H   0.5000000000  10.4600000381  1.7600001097
H   18.6800003052  10.4700002670  0.5700000525
H   0.6900000572  12.5700006485  0.3000000119
H   1.1000000238  11.6300010681  18.2700004578
H   2.7100002766  11.2700004578  1.3000000715
H   2.9400000572  12.4900007248  0.1800000072
N   4.7500000000  14.1599998474  14.1800012589
C   5.0500001907  12.8000011444  13.7500009537
C   4.5700001717  12.4499998093  12.3500003815
N   4.9800004959  13.4000005722  11.3000001907
H   4.5800004005  14.2100009918  15.1800012589
H   3.8300001621  14.3800010681  13.7800006866
H   4.7300000191  12.0800008774  14.5200004578
H   6.1300001144  12.6700010300  13.6900005341
H   3.4800002575  12.4300003052  12.3400011063
H   5.0399999619  11.5100002289  12.0400009155
H   5.9600000381  13.2200002670  11.0699996948
H   4.9900002480  14.3500003815  11.6700000763
N   11.2800006866  13.5300006866  0.0400000028
C   10.5599994659  13.1200008392  1.2200000286
C   9.8000001907  14.3000011444  2.0000000000
N   8.8800010681  15.1400003433  1.1600000858
H   11.7100000381  14.4400014877  0.1400000006
H   10.6900005341  13.5600004196  18.6200008392
H   11.2500000000  12.6200008392  1.9100000858
H   9.8299999237  12.3299999237  1.0300000906
H   10.6000003815  14.9300003052  2.4100000858
H   9.2100009918  13.7800006866  2.7699999809
H   8.3000001907  14.5400009155  0.5800000429
H   9.4900007248  15.6800003052  0.5600000024
N   10.8400011063  3.7400002480  7.6000003815
C   9.5200004578  4.3100004196  7.9600005150
C   9.4400005341  5.7800002098  8.2700004578
N   10.5599994659  6.1500000954  9.0700006485
H   10.7000007629  2.7800002098  7.3000001907
H   11.1300001144  4.2000002861  6.7300004959
H   9.1900005341  3.7400002480  8.8400001526
H   8.8200006485  4.0100002289  7.1700000763
H   8.4600000381  5.8699998856  8.7500009537
H   9.3900003433  6.3900003433  7.3600006104
H   11.4400005341  6.1000003815  8.5399999619
H   10.6100006104  5.4000000954  9.7600002289
N   6.6200008392  18.6800003052  17.3200016022
C   7.4400000572  18.4300003052  18.5700016022
C   6.5600004196  17.9900016785  0.3499999940
N   5.4200005531  18.9099998474  0.5100000501
H   5.8200001717  19.2200012207  17.6500015259
H   6.1200003624  17.8300018311  17.0700016022
H   7.8900003433  19.3900012970  18.8700008392
H   8.1600008011  17.6200008392  18.4200019836
H   7.1000003815  17.9800014496  1.3100001812
H   6.0700006485  17.0100002289  0.2200000137
H   4.9400000572  18.8400001526  19.0200004578
H   5.8600001335  0.4200000167  0.4900000095
N   7.3600006104  17.5600013733  6.2700004578
C   8.5700006485  17.6000003815  5.5800004005
C   9.4700002670  16.3100013733  5.5999999046
N   8.5300006866  15.1400003433  5.5700006485
H   6.6500000954  18.0000000000  5.6800003052
H   7.1300005913  16.5800018311  6.4000005722
H   9.2899999619  18.3400001526  5.9300003052
H   8.2800006866  17.9000015259  4.5700001717
H   10.0500001907  16.2600002289  6.5300006866
H   10.3200006485  16.2400016785  4.9200000763
H   9.0700006485  14.2899999619  5.7100005150
H   8.1100006104  15.0300006866  4.6400003433
N   10.2100000381  5.3500003815  2.0300002098
C   9.7000007629  6.6800003052  2.0900001526
C   9.7300004959  7.4300003052  0.7500000000
N   11.0799999237  7.6300001144  0.2200000137
H   11.0900011063  5.3000001907  1.5200001001
H   9.5900001526  4.8600001335  1.3800001144
H   10.2299995422  7.1600003242  2.9200003147
H   8.6200008392  6.6400003433  2.3300001621
H   9.2500009537  8.4099998474  0.9100000858
H   9.1400003433  6.7800002098  0.1000000089
H   11.6599998474  8.1000003815  0.9100000858
H   10.9900007248  8.2800006866  18.8500003815
N   11.6200008392  5.0000000000  4.8900003433
C   13.1500005722  5.0200004578  4.9400000572
C   13.7400007248  5.0200004578  3.5599999428
N   13.1500005722  6.0900001526  2.7200002670
H   11.3100004196  5.0000000000  3.9100003242
H   11.0500001907  5.6400003433  5.4400005341
H   13.4300003052  4.1200003624  5.5000000000
H   13.5200014114  5.8600001335  5.5500001907
H   13.6600008011  4.0600004196  3.0400002003
H   14.7900009155  5.2900004387  3.7300002575
H   12.1400012970  5.9200000763  2.7500000000
H   13.1100006104  6.8700003624  3.3700001240
N   3.3000001907  4.3900003433  14.3000011444
C   3.6800003052  5.8000001907  14.3500003815
C   5.1900005341  6.0800004005  14.1100006104
N   5.9800004959  5.5900001526  15.2400007248
H   3.8700003624  3.8800001144  14.9800004959
H   3.5700001717  3.9300000668  13.4400005341
H   3.3299999237  6.1500000954  15.3200006485
H   3.0900001526  6.3400001526  13.6000003815
H   5.3500003815  7.1700000763  14.0600004196
H   5.5800004005  5.5800004005  13.2200002670
H   5.9200000763  6.2100005150  16.0400009155
H   6.9700002670  5.7300000191  15.0200004578
N   4.9300003052  18.9099998474  4.1300001144
C   3.6900000572  18.7300014496  4.9700002670
C   3.4300003052  17.2600002289  5.2900004387
N   3.0200002193  16.5200004578  4.0500001907
H   5.2699999809  0.4500000179  4.0800004005
H   4.8500003815  18.6700019836  3.1500003338
H   2.8300001621  19.3100013733  4.6100001335
H   4.0399999619  19.1600017548  5.9200000763
H   2.5199999809  17.3700008392  5.8900003433
H   4.1200003624  16.6600017548  5.9000005722
H   3.8100001812  16.7200012207  3.4400000572
H   2.2400000095  17.0600013733  3.6800003052
N   3.8500001431  16.7500000000  16.7399997711
C   3.3800003529  16.1800003052  17.9600009918
C   3.3400001526  14.6199998856  17.9200000763
N   2.4300000668  14.0100002289  16.9800014496
H   4.8200001717  16.4400005341  16.6600017548
H   3.4000000954  16.2000007629  16.0100002289
H   2.3800001144  16.5699996948  18.1800003052
H   4.0000000000  16.6700000763  18.7200012207
H   3.1200001240  14.2700004578  18.9300003052
H   4.2899999619  14.2399997711  17.5200004578
H   1.7600001097  14.7100009918  16.6900005341
H   1.9500000477  13.4400005341  17.6800003052
N   18.3900012970  6.3600006104  1.8600000143
C   0.0300000012  6.0400004387  0.8899999857
C   0.1700000167  4.5000000000  0.6999999881
N   18.5000019073  3.9600002766  19.2800006866
H   17.5800018311  5.8699998856  1.5100001097
H   18.1700000763  7.3500003815  1.7699999809
H   0.9000000358  6.5800004005  1.2800000906
H   19.1000003815  6.5900001526  0.0100000007
H   0.1299999952  3.9200000763  1.6299999952
H   1.1499999762  4.2800002098  0.2500000000
H   17.7200012207  4.5400004387  0.1800000072
H   18.6599998474  4.3600001335  18.3600006104
N   17.4799995422  14.3000011444  10.0700006485
C   17.1000003815  12.9600000381  10.2400007248
C   16.9200000763  12.2300004959  8.9000005722
N   15.5900001526  12.6000013351  8.3500003815
H   17.9500007629  14.6100006104  10.9200000763
H   16.6399993896  14.8700008392  10.0200004578
H   16.3100013733  12.8800010681  11.0000000000
H   17.9500007629  12.4900007248  10.7500000000
H   17.1200008392  11.1600008011  8.9600000381
H   17.6500015259  12.5300006866  8.1400003433
H   15.7500000000  13.5600004196  8.0300006866
H   14.9300003052  12.6700010300  9.1200008392
N   12.7600002289  15.9900007248  10.2000007629
C   13.8400001526  15.8400011063  11.1999998093
C   13.7800006866  14.4800004959  11.8800010681
N   13.6000003815  13.3199996948  10.9900007248
H   11.8400001526  15.9400005341  10.6400003433
H   12.9300012589  15.1900005341  9.6000003815
H   13.7000007629  16.6700000763  11.9000005722
H   14.7800006866  16.0100002289  10.6600008011
H   12.9500007629  14.4700002670  12.5900001526
H   14.7100009918  14.4400014877  12.4600009918
H   13.4600009918  12.5000000000  11.5700006485
H   12.7700004578  13.2400016785  10.4000005722
N   12.6400003433  8.4400005341  8.7600002289
C   13.2900009155  9.2100009918  7.7400007248
C   12.3900012970  10.2799997330  7.1000003815
N   12.1000003815  11.5000009537  7.8900003433
H   11.7800006866  8.0600004196  8.3699998856
H   12.3000001907  8.9000005722  9.6000003815
H   13.6800003052  8.5799999237  6.9400000572
H   14.1400003433  9.6800003052  8.2600002289
H   11.4000015259  9.8500003815  6.9200000763
H   12.9400005341  10.5700006485  6.1900000572
H   12.9500007629  11.9400005341  8.2300004959
H   11.5200004578  11.2600002289  8.6900005341
N   18.2900009155  0.6700000167  1.3900001049
C   17.0600013733  0.0200000014  0.9000000358
C   16.0200004578  1.1700000763  0.8500000238
N   16.2000007629  2.0400002003  19.1200008392
H   18.1300010681  0.8899999857  2.3800001144
H   18.4300003052  1.6100001335  1.0200001001
H   16.7900009155  18.6400012970  1.6100001335
H   17.1300010681  18.9700012207  19.3199996948
H   16.2100009918  1.8500000238  1.6900001764
H   14.9800004959  0.8200000525  0.8899999857
H   16.1300010681  1.5600000620  18.2300014496
H   17.1200008392  2.4800000191  19.0800018311
N   8.3300008774  10.7500000000  9.3299999237
C   7.5700001717  9.5500001907  9.6700010300
C   7.2800006866  8.6700000763  8.4099998474
N   6.4600000381  9.3900003433  7.4200005531
H   7.7900004387  11.6200008392  9.2899999619
H   8.9099998474  10.6400003433  8.4900007248
H   6.5600004196  9.8600006104  9.9700002670
H   8.1200008392  9.0000000000  10.4400005341
H   6.6800003052  7.8200006485  8.7600002289
H   8.2500000000  8.4500007629  7.9600005150
H   7.0300002098  9.9800004959  6.8100004196
H   5.7000007629  9.9200000763  7.8500003815
